example(e1,f1,positive).
example(e1,f2,negative).
example(e1,f3,negative).
example(e1,f4,negative).
example(e1,f5,negative).
example(e1,f6,negative).
example(e1,f7,negative).
example(e1,f8,positive).
example(e1,f9,negative).
example(e1,f10,positive).
example(e1,f11,negative).
example(e1,f12,negative).
example(e1,f13,positive).
example(e1,f14,negative).
example(e1,f15,negative).
example(e1,f16,negative).
example(e1,f17,negative).
example(e1,f18,negative).
example(e1,f19,negative).
example(e1,f20,negative).
example(e1,f21,negative).
example(e1,f22,negative).
example(e1,f23,negative).
example(e1,f24,negative).
example(e1,f25,negative).
example(e1,f26,negative).
example(e1,f27,negative).
example(e1,f28,negative).
example(e1,f29,negative).
example(e1,f30,negative).
example(e1,f31,negative).
example(e1,f32,positive).
example(e1,f33,negative).
example(e1,f34,negative).
example(e1,f35,negative).
example(e1,f36,negative).
example(e1,f37,negative).
example(e1,f38,negative).
example(e1,f39,negative).
example(e1,f40,negative).
example(e1,f41,negative).
example(e1,f42,negative).
example(e1,f43,negative).
example(e1,f44,negative).
example(e1,f45,negative).
example(e1,f46,negative).
example(e1,f47,negative).
example(e1,f48,negative).
example(e1,f49,negative).
example(e1,f50,negative).
example(e1,f51,negative).
example(e1,f52,negative).
example(e1,f53,negative).
example(e1,f54,negative).
example(e1,f55,negative).
example(e1,f56,negative).
example(e1,f57,negative).
example(e1,f58,negative).
example(e1,f59,negative).
example(e1,f60,negative).
example(e1,f61,negative).
example(e1,f62,negative).
example(e1,f63,negative).
example(e1,f64,negative).
example(e1,f65,negative).
example(e1,f66,negative).
example(e1,f67,positive).
example(e1,f68,negative).
example(e1,f69,positive).
example(e1,f70,negative).
example(e1,f71,negative).
example(e1,f72,negative).
example(e1,f73,negative).
example(e1,f74,negative).
example(e1,f75,negative).
example(e1,f76,negative).
example(e1,f77,negative).
example(e1,f78,positive).
example(e1,f79,negative).
example(e1,f80,negative).
example(e1,f81,negative).
example(e1,f82,negative).
example(e1,f83,negative).
example(e1,f84,negative).
example(e1,f85,negative).
example(e2,f1,positive).
example(e2,f2,negative).
example(e2,f3,negative).
example(e2,f4,negative).
example(e2,f5,negative).
example(e2,f6,negative).
example(e2,f7,negative).
example(e2,f8,positive).
example(e2,f9,negative).
example(e2,f10,positive).
example(e2,f11,negative).
example(e2,f12,negative).
example(e2,f13,positive).
example(e2,f14,negative).
example(e2,f15,negative).
example(e2,f16,negative).
example(e2,f17,negative).
example(e2,f18,negative).
example(e2,f19,negative).
example(e2,f20,negative).
example(e2,f21,negative).
example(e2,f22,negative).
example(e2,f23,negative).
example(e2,f24,negative).
example(e2,f25,negative).
example(e2,f26,negative).
example(e2,f27,negative).
example(e2,f28,negative).
example(e2,f29,negative).
example(e2,f30,negative).
example(e2,f31,negative).
example(e2,f32,positive).
example(e2,f33,negative).
example(e2,f34,negative).
example(e2,f35,negative).
example(e2,f36,negative).
example(e2,f37,negative).
example(e2,f38,negative).
example(e2,f39,negative).
example(e2,f40,negative).
example(e2,f41,negative).
example(e2,f42,negative).
example(e2,f43,negative).
example(e2,f44,negative).
example(e2,f45,negative).
example(e2,f46,negative).
example(e2,f47,negative).
example(e2,f48,negative).
example(e2,f49,negative).
example(e2,f50,negative).
example(e2,f51,negative).
example(e2,f52,negative).
example(e2,f53,negative).
example(e2,f54,negative).
example(e2,f55,negative).
example(e2,f56,negative).
example(e2,f57,negative).
example(e2,f58,negative).
example(e2,f59,negative).
example(e2,f60,negative).
example(e2,f61,negative).
example(e2,f62,negative).
example(e2,f63,negative).
example(e2,f64,negative).
example(e2,f65,negative).
example(e2,f66,negative).
example(e2,f67,positive).
example(e2,f68,negative).
example(e2,f69,positive).
example(e2,f70,negative).
example(e2,f71,negative).
example(e2,f72,negative).
example(e2,f73,negative).
example(e2,f74,negative).
example(e2,f75,negative).
example(e2,f76,negative).
example(e2,f77,negative).
example(e2,f78,positive).
example(e2,f79,negative).
example(e2,f80,negative).
example(e2,f81,negative).
example(e2,f82,negative).
example(e2,f83,negative).
example(e2,f84,negative).
example(e2,f85,negative).
example(e3,f1,positive).
example(e3,f2,negative).
example(e3,f3,positive).
example(e3,f4,negative).
example(e3,f5,negative).
example(e3,f6,negative).
example(e3,f7,negative).
example(e3,f8,positive).
example(e3,f9,negative).
example(e3,f10,positive).
example(e3,f11,negative).
example(e3,f12,negative).
example(e3,f13,positive).
example(e3,f14,negative).
example(e3,f15,negative).
example(e3,f16,negative).
example(e3,f17,negative).
example(e3,f18,negative).
example(e3,f19,negative).
example(e3,f20,negative).
example(e3,f21,negative).
example(e3,f22,positive).
example(e3,f23,negative).
example(e3,f24,negative).
example(e3,f25,negative).
example(e3,f26,negative).
example(e3,f27,negative).
example(e3,f28,negative).
example(e3,f29,negative).
example(e3,f30,negative).
example(e3,f31,negative).
example(e3,f32,negative).
example(e3,f33,negative).
example(e3,f34,negative).
example(e3,f35,negative).
example(e3,f36,negative).
example(e3,f37,negative).
example(e3,f38,negative).
example(e3,f39,negative).
example(e3,f40,negative).
example(e3,f41,negative).
example(e3,f42,negative).
example(e3,f43,negative).
example(e3,f44,negative).
example(e3,f45,negative).
example(e3,f46,negative).
example(e3,f47,negative).
example(e3,f48,negative).
example(e3,f49,negative).
example(e3,f50,negative).
example(e3,f51,negative).
example(e3,f52,negative).
example(e3,f53,negative).
example(e3,f54,negative).
example(e3,f55,negative).
example(e3,f56,negative).
example(e3,f57,negative).
example(e3,f58,negative).
example(e3,f59,negative).
example(e3,f60,negative).
example(e3,f61,positive).
example(e3,f62,negative).
example(e3,f63,negative).
example(e3,f64,negative).
example(e3,f65,negative).
example(e3,f66,negative).
example(e3,f67,positive).
example(e3,f68,negative).
example(e3,f69,positive).
example(e3,f70,negative).
example(e3,f71,negative).
example(e3,f72,negative).
example(e3,f73,negative).
example(e3,f74,negative).
example(e3,f75,negative).
example(e3,f76,negative).
example(e3,f77,negative).
example(e3,f78,positive).
example(e3,f79,negative).
example(e3,f80,negative).
example(e3,f81,negative).
example(e3,f82,negative).
example(e3,f83,negative).
example(e3,f84,negative).
example(e3,f85,negative).
example(e4,f1,positive).
example(e4,f2,negative).
example(e4,f3,negative).
example(e4,f4,negative).
example(e4,f5,negative).
example(e4,f6,negative).
example(e4,f7,negative).
example(e4,f8,positive).
example(e4,f9,negative).
example(e4,f10,positive).
example(e4,f11,negative).
example(e4,f12,negative).
example(e4,f13,positive).
example(e4,f14,negative).
example(e4,f15,negative).
example(e4,f16,negative).
example(e4,f17,negative).
example(e4,f18,negative).
example(e4,f19,negative).
example(e4,f20,negative).
example(e4,f21,negative).
example(e4,f22,positive).
example(e4,f23,negative).
example(e4,f24,negative).
example(e4,f25,negative).
example(e4,f26,negative).
example(e4,f27,negative).
example(e4,f28,negative).
example(e4,f29,negative).
example(e4,f30,negative).
example(e4,f31,negative).
example(e4,f32,negative).
example(e4,f33,negative).
example(e4,f34,negative).
example(e4,f35,negative).
example(e4,f36,negative).
example(e4,f37,negative).
example(e4,f38,negative).
example(e4,f39,negative).
example(e4,f40,negative).
example(e4,f41,negative).
example(e4,f42,negative).
example(e4,f43,negative).
example(e4,f44,negative).
example(e4,f45,negative).
example(e4,f46,negative).
example(e4,f47,negative).
example(e4,f48,negative).
example(e4,f49,negative).
example(e4,f50,negative).
example(e4,f51,negative).
example(e4,f52,negative).
example(e4,f53,negative).
example(e4,f54,negative).
example(e4,f55,negative).
example(e4,f56,negative).
example(e4,f57,negative).
example(e4,f58,negative).
example(e4,f59,positive).
example(e4,f60,negative).
example(e4,f61,negative).
example(e4,f62,negative).
example(e4,f63,negative).
example(e4,f64,negative).
example(e4,f65,positive).
example(e4,f66,negative).
example(e4,f67,positive).
example(e4,f68,negative).
example(e4,f69,positive).
example(e4,f70,negative).
example(e4,f71,negative).
example(e4,f72,negative).
example(e4,f73,negative).
example(e4,f74,negative).
example(e4,f75,positive).
example(e4,f76,negative).
example(e4,f77,negative).
example(e4,f78,positive).
example(e4,f79,negative).
example(e4,f80,negative).
example(e4,f81,negative).
example(e4,f82,negative).
example(e4,f83,negative).
example(e4,f84,negative).
example(e4,f85,negative).
example(e5,f1,positive).
example(e5,f2,negative).
example(e5,f3,negative).
example(e5,f4,negative).
example(e5,f5,negative).
example(e5,f6,negative).
example(e5,f7,negative).
example(e5,f8,positive).
example(e5,f9,negative).
example(e5,f10,positive).
example(e5,f11,negative).
example(e5,f12,negative).
example(e5,f13,positive).
example(e5,f14,negative).
example(e5,f15,negative).
example(e5,f16,negative).
example(e5,f17,negative).
example(e5,f18,negative).
example(e5,f19,negative).
example(e5,f20,negative).
example(e5,f21,negative).
example(e5,f22,negative).
example(e5,f23,negative).
example(e5,f24,negative).
example(e5,f25,negative).
example(e5,f26,negative).
example(e5,f27,negative).
example(e5,f28,negative).
example(e5,f29,negative).
example(e5,f30,negative).
example(e5,f31,negative).
example(e5,f32,negative).
example(e5,f33,negative).
example(e5,f34,positive).
example(e5,f35,negative).
example(e5,f36,negative).
example(e5,f37,negative).
example(e5,f38,negative).
example(e5,f39,negative).
example(e5,f40,negative).
example(e5,f41,negative).
example(e5,f42,negative).
example(e5,f43,negative).
example(e5,f44,negative).
example(e5,f45,negative).
example(e5,f46,negative).
example(e5,f47,negative).
example(e5,f48,negative).
example(e5,f49,negative).
example(e5,f50,negative).
example(e5,f51,negative).
example(e5,f52,negative).
example(e5,f53,negative).
example(e5,f54,negative).
example(e5,f55,negative).
example(e5,f56,negative).
example(e5,f57,negative).
example(e5,f58,negative).
example(e5,f59,negative).
example(e5,f60,negative).
example(e5,f61,negative).
example(e5,f62,negative).
example(e5,f63,negative).
example(e5,f64,negative).
example(e5,f65,negative).
example(e5,f66,negative).
example(e5,f67,positive).
example(e5,f68,negative).
example(e5,f69,positive).
example(e5,f70,negative).
example(e5,f71,negative).
example(e5,f72,negative).
example(e5,f73,positive).
example(e5,f74,negative).
example(e5,f75,negative).
example(e5,f76,negative).
example(e5,f77,negative).
example(e5,f78,positive).
example(e5,f79,negative).
example(e5,f80,negative).
example(e5,f81,negative).
example(e5,f82,negative).
example(e5,f83,negative).
example(e5,f84,negative).
example(e5,f85,negative).
example(e6,f1,positive).
example(e6,f2,negative).
example(e6,f3,negative).
example(e6,f4,negative).
example(e6,f5,negative).
example(e6,f6,negative).
example(e6,f7,negative).
example(e6,f8,positive).
example(e6,f9,negative).
example(e6,f10,positive).
example(e6,f11,negative).
example(e6,f12,negative).
example(e6,f13,positive).
example(e6,f14,negative).
example(e6,f15,negative).
example(e6,f16,negative).
example(e6,f17,negative).
example(e6,f18,negative).
example(e6,f19,negative).
example(e6,f20,negative).
example(e6,f21,negative).
example(e6,f22,negative).
example(e6,f23,negative).
example(e6,f24,negative).
example(e6,f25,negative).
example(e6,f26,negative).
example(e6,f27,negative).
example(e6,f28,negative).
example(e6,f29,negative).
example(e6,f30,negative).
example(e6,f31,negative).
example(e6,f32,negative).
example(e6,f33,negative).
example(e6,f34,negative).
example(e6,f35,negative).
example(e6,f36,negative).
example(e6,f37,negative).
example(e6,f38,negative).
example(e6,f39,negative).
example(e6,f40,negative).
example(e6,f41,negative).
example(e6,f42,negative).
example(e6,f43,negative).
example(e6,f44,negative).
example(e6,f45,positive).
example(e6,f46,negative).
example(e6,f47,negative).
example(e6,f48,negative).
example(e6,f49,negative).
example(e6,f50,negative).
example(e6,f51,negative).
example(e6,f52,negative).
example(e6,f53,negative).
example(e6,f54,negative).
example(e6,f55,negative).
example(e6,f56,negative).
example(e6,f57,negative).
example(e6,f58,negative).
example(e6,f59,negative).
example(e6,f60,negative).
example(e6,f61,negative).
example(e6,f62,negative).
example(e6,f63,negative).
example(e6,f64,negative).
example(e6,f65,negative).
example(e6,f66,negative).
example(e6,f67,positive).
example(e6,f68,negative).
example(e6,f69,positive).
example(e6,f70,negative).
example(e6,f71,negative).
example(e6,f72,negative).
example(e6,f73,negative).
example(e6,f74,negative).
example(e6,f75,negative).
example(e6,f76,positive).
example(e6,f77,negative).
example(e6,f78,positive).
example(e6,f79,negative).
example(e6,f80,negative).
example(e6,f81,negative).
example(e6,f82,negative).
example(e6,f83,negative).
example(e6,f84,negative).
example(e6,f85,negative).
example(e7,f1,positive).
example(e7,f2,negative).
example(e7,f3,negative).
example(e7,f4,negative).
example(e7,f5,negative).
example(e7,f6,negative).
example(e7,f7,negative).
example(e7,f8,positive).
example(e7,f9,negative).
example(e7,f10,positive).
example(e7,f11,negative).
example(e7,f12,negative).
example(e7,f13,positive).
example(e7,f14,negative).
example(e7,f15,negative).
example(e7,f16,negative).
example(e7,f17,negative).
example(e7,f18,negative).
example(e7,f19,negative).
example(e7,f20,negative).
example(e7,f21,negative).
example(e7,f22,negative).
example(e7,f23,negative).
example(e7,f24,negative).
example(e7,f25,negative).
example(e7,f26,negative).
example(e7,f27,negative).
example(e7,f28,negative).
example(e7,f29,negative).
example(e7,f30,negative).
example(e7,f31,negative).
example(e7,f32,negative).
example(e7,f33,negative).
example(e7,f34,positive).
example(e7,f35,negative).
example(e7,f36,negative).
example(e7,f37,negative).
example(e7,f38,negative).
example(e7,f39,negative).
example(e7,f40,negative).
example(e7,f41,negative).
example(e7,f42,negative).
example(e7,f43,negative).
example(e7,f44,negative).
example(e7,f45,negative).
example(e7,f46,negative).
example(e7,f47,negative).
example(e7,f48,negative).
example(e7,f49,negative).
example(e7,f50,negative).
example(e7,f51,negative).
example(e7,f52,negative).
example(e7,f53,negative).
example(e7,f54,negative).
example(e7,f55,negative).
example(e7,f56,negative).
example(e7,f57,negative).
example(e7,f58,negative).
example(e7,f59,negative).
example(e7,f60,negative).
example(e7,f61,negative).
example(e7,f62,negative).
example(e7,f63,negative).
example(e7,f64,negative).
example(e7,f65,negative).
example(e7,f66,negative).
example(e7,f67,positive).
example(e7,f68,negative).
example(e7,f69,positive).
example(e7,f70,negative).
example(e7,f71,negative).
example(e7,f72,negative).
example(e7,f73,negative).
example(e7,f74,negative).
example(e7,f75,negative).
example(e7,f76,negative).
example(e7,f77,negative).
example(e7,f78,positive).
example(e7,f79,negative).
example(e7,f80,negative).
example(e7,f81,negative).
example(e7,f82,negative).
example(e7,f83,negative).
example(e7,f84,negative).
example(e7,f85,negative).
example(e8,f1,positive).
example(e8,f2,negative).
example(e8,f3,negative).
example(e8,f4,negative).
example(e8,f5,negative).
example(e8,f6,negative).
example(e8,f7,negative).
example(e8,f8,positive).
example(e8,f9,negative).
example(e8,f10,positive).
example(e8,f11,negative).
example(e8,f12,negative).
example(e8,f13,positive).
example(e8,f14,negative).
example(e8,f15,negative).
example(e8,f16,negative).
example(e8,f17,negative).
example(e8,f18,negative).
example(e8,f19,negative).
example(e8,f20,negative).
example(e8,f21,negative).
example(e8,f22,negative).
example(e8,f23,negative).
example(e8,f24,negative).
example(e8,f25,negative).
example(e8,f26,negative).
example(e8,f27,negative).
example(e8,f28,negative).
example(e8,f29,negative).
example(e8,f30,negative).
example(e8,f31,negative).
example(e8,f32,negative).
example(e8,f33,negative).
example(e8,f34,positive).
example(e8,f35,negative).
example(e8,f36,negative).
example(e8,f37,negative).
example(e8,f38,negative).
example(e8,f39,negative).
example(e8,f40,negative).
example(e8,f41,negative).
example(e8,f42,negative).
example(e8,f43,negative).
example(e8,f44,negative).
example(e8,f45,negative).
example(e8,f46,negative).
example(e8,f47,negative).
example(e8,f48,negative).
example(e8,f49,negative).
example(e8,f50,negative).
example(e8,f51,negative).
example(e8,f52,negative).
example(e8,f53,negative).
example(e8,f54,negative).
example(e8,f55,negative).
example(e8,f56,negative).
example(e8,f57,negative).
example(e8,f58,negative).
example(e8,f59,negative).
example(e8,f60,negative).
example(e8,f61,negative).
example(e8,f62,negative).
example(e8,f63,negative).
example(e8,f64,negative).
example(e8,f65,negative).
example(e8,f66,negative).
example(e8,f67,positive).
example(e8,f68,negative).
example(e8,f69,positive).
example(e8,f70,negative).
example(e8,f71,negative).
example(e8,f72,negative).
example(e8,f73,negative).
example(e8,f74,negative).
example(e8,f75,negative).
example(e8,f76,negative).
example(e8,f77,negative).
example(e8,f78,positive).
example(e8,f79,negative).
example(e8,f80,negative).
example(e8,f81,negative).
example(e8,f82,negative).
example(e8,f83,negative).
example(e8,f84,negative).
example(e8,f85,negative).
example(e9,f1,negative).
example(e9,f2,negative).
example(e9,f3,positive).
example(e9,f4,negative).
example(e9,f5,negative).
example(e9,f6,negative).
example(e9,f7,negative).
example(e9,f8,positive).
example(e9,f9,negative).
example(e9,f10,positive).
example(e9,f11,negative).
example(e9,f12,negative).
example(e9,f13,positive).
example(e9,f14,negative).
example(e9,f15,negative).
example(e9,f16,negative).
example(e9,f17,negative).
example(e9,f18,negative).
example(e9,f19,negative).
example(e9,f20,negative).
example(e9,f21,negative).
example(e9,f22,positive).
example(e9,f23,negative).
example(e9,f24,negative).
example(e9,f25,negative).
example(e9,f26,negative).
example(e9,f27,negative).
example(e9,f28,negative).
example(e9,f29,negative).
example(e9,f30,negative).
example(e9,f31,negative).
example(e9,f32,negative).
example(e9,f33,negative).
example(e9,f34,negative).
example(e9,f35,negative).
example(e9,f36,negative).
example(e9,f37,negative).
example(e9,f38,negative).
example(e9,f39,negative).
example(e9,f40,negative).
example(e9,f41,negative).
example(e9,f42,negative).
example(e9,f43,negative).
example(e9,f44,negative).
example(e9,f45,negative).
example(e9,f46,negative).
example(e9,f47,positive).
example(e9,f48,negative).
example(e9,f49,negative).
example(e9,f50,negative).
example(e9,f51,negative).
example(e9,f52,negative).
example(e9,f53,negative).
example(e9,f54,negative).
example(e9,f55,negative).
example(e9,f56,negative).
example(e9,f57,negative).
example(e9,f58,negative).
example(e9,f59,negative).
example(e9,f60,negative).
example(e9,f61,negative).
example(e9,f62,negative).
example(e9,f63,negative).
example(e9,f64,negative).
example(e9,f65,positive).
example(e9,f66,negative).
example(e9,f67,positive).
example(e9,f68,negative).
example(e9,f69,positive).
example(e9,f70,negative).
example(e9,f71,negative).
example(e9,f72,negative).
example(e9,f73,positive).
example(e9,f74,negative).
example(e9,f75,negative).
example(e9,f76,negative).
example(e9,f77,negative).
example(e9,f78,positive).
example(e9,f79,negative).
example(e9,f80,negative).
example(e9,f81,negative).
example(e9,f82,negative).
example(e9,f83,negative).
example(e9,f84,negative).
example(e9,f85,negative).
example(e10,f1,negative).
example(e10,f2,negative).
example(e10,f3,positive).
example(e10,f4,negative).
example(e10,f5,negative).
example(e10,f6,negative).
example(e10,f7,negative).
example(e10,f8,positive).
example(e10,f9,negative).
example(e10,f10,positive).
example(e10,f11,negative).
example(e10,f12,negative).
example(e10,f13,positive).
example(e10,f14,negative).
example(e10,f15,negative).
example(e10,f16,negative).
example(e10,f17,negative).
example(e10,f18,negative).
example(e10,f19,negative).
example(e10,f20,negative).
example(e10,f21,negative).
example(e10,f22,positive).
example(e10,f23,negative).
example(e10,f24,negative).
example(e10,f25,negative).
example(e10,f26,negative).
example(e10,f27,negative).
example(e10,f28,negative).
example(e10,f29,negative).
example(e10,f30,negative).
example(e10,f31,negative).
example(e10,f32,negative).
example(e10,f33,negative).
example(e10,f34,negative).
example(e10,f35,negative).
example(e10,f36,negative).
example(e10,f37,negative).
example(e10,f38,negative).
example(e10,f39,negative).
example(e10,f40,negative).
example(e10,f41,negative).
example(e10,f42,negative).
example(e10,f43,negative).
example(e10,f44,negative).
example(e10,f45,positive).
example(e10,f46,negative).
example(e10,f47,negative).
example(e10,f48,negative).
example(e10,f49,negative).
example(e10,f50,negative).
example(e10,f51,negative).
example(e10,f52,negative).
example(e10,f53,negative).
example(e10,f54,negative).
example(e10,f55,negative).
example(e10,f56,negative).
example(e10,f57,negative).
example(e10,f58,negative).
example(e10,f59,negative).
example(e10,f60,negative).
example(e10,f61,negative).
example(e10,f62,negative).
example(e10,f63,negative).
example(e10,f64,negative).
example(e10,f65,negative).
example(e10,f66,negative).
example(e10,f67,positive).
example(e10,f68,negative).
example(e10,f69,positive).
example(e10,f70,negative).
example(e10,f71,negative).
example(e10,f72,negative).
example(e10,f73,negative).
example(e10,f74,negative).
example(e10,f75,negative).
example(e10,f76,positive).
example(e10,f77,negative).
example(e10,f78,positive).
example(e10,f79,negative).
example(e10,f80,negative).
example(e10,f81,negative).
example(e10,f82,negative).
example(e10,f83,negative).
example(e10,f84,negative).
example(e10,f85,negative).
example(e11,f1,negative).
example(e11,f2,positive).
example(e11,f3,negative).
example(e11,f4,negative).
example(e11,f5,negative).
example(e11,f6,negative).
example(e11,f7,negative).
example(e11,f8,negative).
example(e11,f9,negative).
example(e11,f10,negative).
example(e11,f11,negative).
example(e11,f12,negative).
example(e11,f13,negative).
example(e11,f14,negative).
example(e11,f15,negative).
example(e11,f16,negative).
example(e11,f17,negative).
example(e11,f18,negative).
example(e11,f19,negative).
example(e11,f20,negative).
example(e11,f21,negative).
example(e11,f22,positive).
example(e11,f23,negative).
example(e11,f24,negative).
example(e11,f25,positive).
example(e11,f26,negative).
example(e11,f27,negative).
example(e11,f28,negative).
example(e11,f29,negative).
example(e11,f30,negative).
example(e11,f31,negative).
example(e11,f32,negative).
example(e11,f33,negative).
example(e11,f34,negative).
example(e11,f35,negative).
example(e11,f36,negative).
example(e11,f37,negative).
example(e11,f38,negative).
example(e11,f39,negative).
example(e11,f40,negative).
example(e11,f41,negative).
example(e11,f42,negative).
example(e11,f43,negative).
example(e11,f44,negative).
example(e11,f45,negative).
example(e11,f46,negative).
example(e11,f47,negative).
example(e11,f48,negative).
example(e11,f49,negative).
example(e11,f50,negative).
example(e11,f51,negative).
example(e11,f52,negative).
example(e11,f53,negative).
example(e11,f54,negative).
example(e11,f55,negative).
example(e11,f56,negative).
example(e11,f57,negative).
example(e11,f58,positive).
example(e11,f59,negative).
example(e11,f60,negative).
example(e11,f61,negative).
example(e11,f62,negative).
example(e11,f63,negative).
example(e11,f64,negative).
example(e11,f65,negative).
example(e11,f66,negative).
example(e11,f67,negative).
example(e11,f68,negative).
example(e11,f69,negative).
example(e11,f70,negative).
example(e11,f71,negative).
example(e11,f72,negative).
example(e11,f73,negative).
example(e11,f74,negative).
example(e11,f75,negative).
example(e11,f76,positive).
example(e11,f77,negative).
example(e11,f78,positive).
example(e11,f79,negative).
example(e11,f80,positive).
example(e11,f81,negative).
example(e11,f82,negative).
example(e11,f83,negative).
example(e11,f84,negative).
example(e11,f85,negative).
example(e12,f1,negative).
example(e12,f2,positive).
example(e12,f3,negative).
example(e12,f4,negative).
example(e12,f5,negative).
example(e12,f6,negative).
example(e12,f7,negative).
example(e12,f8,negative).
example(e12,f9,negative).
example(e12,f10,negative).
example(e12,f11,negative).
example(e12,f12,negative).
example(e12,f13,negative).
example(e12,f14,negative).
example(e12,f15,negative).
example(e12,f16,negative).
example(e12,f17,negative).
example(e12,f18,negative).
example(e12,f19,negative).
example(e12,f20,negative).
example(e12,f21,negative).
example(e12,f22,positive).
example(e12,f23,negative).
example(e12,f24,negative).
example(e12,f25,positive).
example(e12,f26,negative).
example(e12,f27,negative).
example(e12,f28,negative).
example(e12,f29,negative).
example(e12,f30,negative).
example(e12,f31,negative).
example(e12,f32,negative).
example(e12,f33,negative).
example(e12,f34,negative).
example(e12,f35,negative).
example(e12,f36,negative).
example(e12,f37,negative).
example(e12,f38,negative).
example(e12,f39,negative).
example(e12,f40,negative).
example(e12,f41,negative).
example(e12,f42,negative).
example(e12,f43,negative).
example(e12,f44,negative).
example(e12,f45,negative).
example(e12,f46,negative).
example(e12,f47,negative).
example(e12,f48,negative).
example(e12,f49,negative).
example(e12,f50,negative).
example(e12,f51,negative).
example(e12,f52,negative).
example(e12,f53,negative).
example(e12,f54,negative).
example(e12,f55,negative).
example(e12,f56,negative).
example(e12,f57,negative).
example(e12,f58,positive).
example(e12,f59,negative).
example(e12,f60,negative).
example(e12,f61,negative).
example(e12,f62,negative).
example(e12,f63,negative).
example(e12,f64,negative).
example(e12,f65,negative).
example(e12,f66,negative).
example(e12,f67,negative).
example(e12,f68,negative).
example(e12,f69,negative).
example(e12,f70,negative).
example(e12,f71,negative).
example(e12,f72,negative).
example(e12,f73,negative).
example(e12,f74,negative).
example(e12,f75,negative).
example(e12,f76,negative).
example(e12,f77,negative).
example(e12,f78,positive).
example(e12,f79,negative).
example(e12,f80,positive).
example(e12,f81,negative).
example(e12,f82,negative).
example(e12,f83,negative).
example(e12,f84,negative).
example(e12,f85,negative).
example(e13,f1,negative).
example(e13,f2,negative).
example(e13,f3,positive).
example(e13,f4,negative).
example(e13,f5,negative).
example(e13,f6,negative).
example(e13,f7,positive).
example(e13,f8,negative).
example(e13,f9,negative).
example(e13,f10,negative).
example(e13,f11,negative).
example(e13,f12,positive).
example(e13,f13,negative).
example(e13,f14,negative).
example(e13,f15,negative).
example(e13,f16,negative).
example(e13,f17,negative).
example(e13,f18,negative).
example(e13,f19,negative).
example(e13,f20,negative).
example(e13,f21,negative).
example(e13,f22,positive).
example(e13,f23,negative).
example(e13,f24,positive).
example(e13,f25,negative).
example(e13,f26,negative).
example(e13,f27,negative).
example(e13,f28,negative).
example(e13,f29,negative).
example(e13,f30,negative).
example(e13,f31,negative).
example(e13,f32,negative).
example(e13,f33,negative).
example(e13,f34,negative).
example(e13,f35,negative).
example(e13,f36,negative).
example(e13,f37,negative).
example(e13,f38,negative).
example(e13,f39,negative).
example(e13,f40,negative).
example(e13,f41,negative).
example(e13,f42,negative).
example(e13,f43,negative).
example(e13,f44,negative).
example(e13,f45,positive).
example(e13,f46,negative).
example(e13,f47,negative).
example(e13,f48,negative).
example(e13,f49,negative).
example(e13,f50,negative).
example(e13,f51,negative).
example(e13,f52,negative).
example(e13,f53,negative).
example(e13,f54,negative).
example(e13,f55,negative).
example(e13,f56,negative).
example(e13,f57,negative).
example(e13,f58,negative).
example(e13,f59,negative).
example(e13,f60,negative).
example(e13,f61,negative).
example(e13,f62,negative).
example(e13,f63,negative).
example(e13,f64,negative).
example(e13,f65,positive).
example(e13,f66,positive).
example(e13,f67,negative).
example(e13,f68,positive).
example(e13,f69,negative).
example(e13,f70,negative).
example(e13,f71,negative).
example(e13,f72,negative).
example(e13,f73,positive).
example(e13,f74,negative).
example(e13,f75,negative).
example(e13,f76,negative).
example(e13,f77,negative).
example(e13,f78,positive).
example(e13,f79,negative).
example(e13,f80,negative).
example(e13,f81,negative).
example(e13,f82,negative).
example(e13,f83,negative).
example(e13,f84,negative).
example(e13,f85,negative).
example(e14,f1,negative).
example(e14,f2,negative).
example(e14,f3,positive).
example(e14,f4,negative).
example(e14,f5,negative).
example(e14,f6,negative).
example(e14,f7,positive).
example(e14,f8,negative).
example(e14,f9,positive).
example(e14,f10,negative).
example(e14,f11,negative).
example(e14,f12,positive).
example(e14,f13,negative).
example(e14,f14,negative).
example(e14,f15,negative).
example(e14,f16,negative).
example(e14,f17,negative).
example(e14,f18,negative).
example(e14,f19,negative).
example(e14,f20,negative).
example(e14,f21,negative).
example(e14,f22,positive).
example(e14,f23,negative).
example(e14,f24,positive).
example(e14,f25,negative).
example(e14,f26,negative).
example(e14,f27,negative).
example(e14,f28,negative).
example(e14,f29,negative).
example(e14,f30,negative).
example(e14,f31,negative).
example(e14,f32,negative).
example(e14,f33,negative).
example(e14,f34,negative).
example(e14,f35,negative).
example(e14,f36,negative).
example(e14,f37,negative).
example(e14,f38,negative).
example(e14,f39,negative).
example(e14,f40,negative).
example(e14,f41,negative).
example(e14,f42,negative).
example(e14,f43,negative).
example(e14,f44,negative).
example(e14,f45,negative).
example(e14,f46,negative).
example(e14,f47,negative).
example(e14,f48,negative).
example(e14,f49,negative).
example(e14,f50,negative).
example(e14,f51,negative).
example(e14,f52,negative).
example(e14,f53,negative).
example(e14,f54,negative).
example(e14,f55,negative).
example(e14,f56,negative).
example(e14,f57,negative).
example(e14,f58,negative).
example(e14,f59,negative).
example(e14,f60,negative).
example(e14,f61,negative).
example(e14,f62,negative).
example(e14,f63,negative).
example(e14,f64,negative).
example(e14,f65,negative).
example(e14,f66,positive).
example(e14,f67,negative).
example(e14,f68,negative).
example(e14,f69,negative).
example(e14,f70,negative).
example(e14,f71,positive).
example(e14,f72,negative).
example(e14,f73,negative).
example(e14,f74,negative).
example(e14,f75,negative).
example(e14,f76,positive).
example(e14,f77,negative).
example(e14,f78,positive).
example(e14,f79,negative).
example(e14,f80,negative).
example(e14,f81,negative).
example(e14,f82,negative).
example(e14,f83,negative).
example(e14,f84,negative).
example(e14,f85,negative).
example(e15,f1,positive).
example(e15,f2,negative).
example(e15,f3,positive).
example(e15,f4,negative).
example(e15,f5,negative).
example(e15,f6,negative).
example(e15,f7,negative).
example(e15,f8,positive).
example(e15,f9,negative).
example(e15,f10,positive).
example(e15,f11,negative).
example(e15,f12,negative).
example(e15,f13,positive).
example(e15,f14,negative).
example(e15,f15,negative).
example(e15,f16,negative).
example(e15,f17,negative).
example(e15,f18,negative).
example(e15,f19,negative).
example(e15,f20,negative).
example(e15,f21,negative).
example(e15,f22,negative).
example(e15,f23,negative).
example(e15,f24,negative).
example(e15,f25,negative).
example(e15,f26,negative).
example(e15,f27,negative).
example(e15,f28,negative).
example(e15,f29,negative).
example(e15,f30,negative).
example(e15,f31,negative).
example(e15,f32,negative).
example(e15,f33,negative).
example(e15,f34,negative).
example(e15,f35,negative).
example(e15,f36,negative).
example(e15,f37,negative).
example(e15,f38,negative).
example(e15,f39,negative).
example(e15,f40,negative).
example(e15,f41,negative).
example(e15,f42,negative).
example(e15,f43,negative).
example(e15,f44,negative).
example(e15,f45,negative).
example(e15,f46,negative).
example(e15,f47,positive).
example(e15,f48,negative).
example(e15,f49,negative).
example(e15,f50,negative).
example(e15,f51,negative).
example(e15,f52,negative).
example(e15,f53,negative).
example(e15,f54,negative).
example(e15,f55,negative).
example(e15,f56,negative).
example(e15,f57,negative).
example(e15,f58,negative).
example(e15,f59,negative).
example(e15,f60,negative).
example(e15,f61,negative).
example(e15,f62,negative).
example(e15,f63,negative).
example(e15,f64,negative).
example(e15,f65,negative).
example(e15,f66,negative).
example(e15,f67,positive).
example(e15,f68,negative).
example(e15,f69,positive).
example(e15,f70,negative).
example(e15,f71,negative).
example(e15,f72,negative).
example(e15,f73,negative).
example(e15,f74,negative).
example(e15,f75,negative).
example(e15,f76,positive).
example(e15,f77,negative).
example(e15,f78,positive).
example(e15,f79,negative).
example(e15,f80,negative).
example(e15,f81,negative).
example(e15,f82,negative).
example(e15,f83,negative).
example(e15,f84,negative).
example(e15,f85,negative).
example(e16,f1,positive).
example(e16,f2,negative).
example(e16,f3,positive).
example(e16,f4,negative).
example(e16,f5,negative).
example(e16,f6,negative).
example(e16,f7,negative).
example(e16,f8,positive).
example(e16,f9,negative).
example(e16,f10,positive).
example(e16,f11,negative).
example(e16,f12,negative).
example(e16,f13,positive).
example(e16,f14,negative).
example(e16,f15,negative).
example(e16,f16,negative).
example(e16,f17,negative).
example(e16,f18,negative).
example(e16,f19,negative).
example(e16,f20,negative).
example(e16,f21,negative).
example(e16,f22,negative).
example(e16,f23,negative).
example(e16,f24,negative).
example(e16,f25,negative).
example(e16,f26,negative).
example(e16,f27,negative).
example(e16,f28,negative).
example(e16,f29,negative).
example(e16,f30,negative).
example(e16,f31,negative).
example(e16,f32,negative).
example(e16,f33,negative).
example(e16,f34,negative).
example(e16,f35,negative).
example(e16,f36,negative).
example(e16,f37,negative).
example(e16,f38,negative).
example(e16,f39,negative).
example(e16,f40,negative).
example(e16,f41,negative).
example(e16,f42,negative).
example(e16,f43,negative).
example(e16,f44,negative).
example(e16,f45,negative).
example(e16,f46,negative).
example(e16,f47,negative).
example(e16,f48,negative).
example(e16,f49,positive).
example(e16,f50,negative).
example(e16,f51,negative).
example(e16,f52,negative).
example(e16,f53,negative).
example(e16,f54,negative).
example(e16,f55,negative).
example(e16,f56,negative).
example(e16,f57,negative).
example(e16,f58,negative).
example(e16,f59,negative).
example(e16,f60,negative).
example(e16,f61,negative).
example(e16,f62,negative).
example(e16,f63,negative).
example(e16,f64,negative).
example(e16,f65,negative).
example(e16,f66,negative).
example(e16,f67,positive).
example(e16,f68,negative).
example(e16,f69,positive).
example(e16,f70,negative).
example(e16,f71,negative).
example(e16,f72,negative).
example(e16,f73,negative).
example(e16,f74,negative).
example(e16,f75,negative).
example(e16,f76,negative).
example(e16,f77,negative).
example(e16,f78,positive).
example(e16,f79,negative).
example(e16,f80,negative).
example(e16,f81,negative).
example(e16,f82,negative).
example(e16,f83,negative).
example(e16,f84,negative).
example(e16,f85,negative).
example(e17,f1,negative).
example(e17,f2,negative).
example(e17,f3,positive).
example(e17,f4,negative).
example(e17,f5,negative).
example(e17,f6,negative).
example(e17,f7,negative).
example(e17,f8,negative).
example(e17,f9,negative).
example(e17,f10,positive).
example(e17,f11,negative).
example(e17,f12,positive).
example(e17,f13,negative).
example(e17,f14,negative).
example(e17,f15,negative).
example(e17,f16,negative).
example(e17,f17,negative).
example(e17,f18,negative).
example(e17,f19,negative).
example(e17,f20,negative).
example(e17,f21,negative).
example(e17,f22,negative).
example(e17,f23,negative).
example(e17,f24,positive).
example(e17,f25,negative).
example(e17,f26,negative).
example(e17,f27,negative).
example(e17,f28,negative).
example(e17,f29,negative).
example(e17,f30,negative).
example(e17,f31,negative).
example(e17,f32,negative).
example(e17,f33,negative).
example(e17,f34,negative).
example(e17,f35,negative).
example(e17,f36,negative).
example(e17,f37,negative).
example(e17,f38,negative).
example(e17,f39,negative).
example(e17,f40,negative).
example(e17,f41,negative).
example(e17,f42,negative).
example(e17,f43,negative).
example(e17,f44,negative).
example(e17,f45,negative).
example(e17,f46,negative).
example(e17,f47,negative).
example(e17,f48,negative).
example(e17,f49,negative).
example(e17,f50,negative).
example(e17,f51,negative).
example(e17,f52,negative).
example(e17,f53,negative).
example(e17,f54,negative).
example(e17,f55,negative).
example(e17,f56,negative).
example(e17,f57,negative).
example(e17,f58,negative).
example(e17,f59,negative).
example(e17,f60,negative).
example(e17,f61,negative).
example(e17,f62,negative).
example(e17,f63,negative).
example(e17,f64,negative).
example(e17,f65,negative).
example(e17,f66,negative).
example(e17,f67,negative).
example(e17,f68,negative).
example(e17,f69,negative).
example(e17,f70,negative).
example(e17,f71,negative).
example(e17,f72,negative).
example(e17,f73,positive).
example(e17,f74,negative).
example(e17,f75,negative).
example(e17,f76,negative).
example(e17,f77,negative).
example(e17,f78,positive).
example(e17,f79,negative).
example(e17,f80,negative).
example(e17,f81,negative).
example(e17,f82,negative).
example(e17,f83,negative).
example(e17,f84,negative).
example(e17,f85,negative).
example(e18,f1,negative).
example(e18,f2,negative).
example(e18,f3,negative).
example(e18,f4,negative).
example(e18,f5,negative).
example(e18,f6,positive).
example(e18,f7,negative).
example(e18,f8,negative).
example(e18,f9,negative).
example(e18,f10,negative).
example(e18,f11,negative).
example(e18,f12,negative).
example(e18,f13,negative).
example(e18,f14,negative).
example(e18,f15,negative).
example(e18,f16,negative).
example(e18,f17,negative).
example(e18,f18,negative).
example(e18,f19,negative).
example(e18,f20,negative).
example(e18,f21,negative).
example(e18,f22,negative).
example(e18,f23,negative).
example(e18,f24,positive).
example(e18,f25,negative).
example(e18,f26,negative).
example(e18,f27,negative).
example(e18,f28,negative).
example(e18,f29,positive).
example(e18,f30,negative).
example(e18,f31,negative).
example(e18,f32,negative).
example(e18,f33,negative).
example(e18,f34,negative).
example(e18,f35,negative).
example(e18,f36,negative).
example(e18,f37,negative).
example(e18,f38,negative).
example(e18,f39,negative).
example(e18,f40,negative).
example(e18,f41,negative).
example(e18,f42,negative).
example(e18,f43,negative).
example(e18,f44,positive).
example(e18,f45,negative).
example(e18,f46,negative).
example(e18,f47,negative).
example(e18,f48,negative).
example(e18,f49,negative).
example(e18,f50,negative).
example(e18,f51,negative).
example(e18,f52,negative).
example(e18,f53,negative).
example(e18,f54,negative).
example(e18,f55,negative).
example(e18,f56,negative).
example(e18,f57,negative).
example(e18,f58,negative).
example(e18,f59,negative).
example(e18,f60,negative).
example(e18,f61,negative).
example(e18,f62,negative).
example(e18,f63,negative).
example(e18,f64,negative).
example(e18,f65,negative).
example(e18,f66,negative).
example(e18,f67,negative).
example(e18,f68,negative).
example(e18,f69,positive).
example(e18,f70,negative).
example(e18,f71,negative).
example(e18,f72,negative).
example(e18,f73,positive).
example(e18,f74,negative).
example(e18,f75,negative).
example(e18,f76,negative).
example(e18,f77,negative).
example(e18,f78,positive).
example(e18,f79,negative).
example(e18,f80,positive).
example(e18,f81,negative).
example(e18,f82,negative).
example(e18,f83,negative).
example(e18,f84,negative).
example(e18,f85,negative).
example(e19,f1,positive).
example(e19,f2,negative).
example(e19,f3,negative).
example(e19,f4,negative).
example(e19,f5,negative).
example(e19,f6,negative).
example(e19,f7,negative).
example(e19,f8,positive).
example(e19,f9,negative).
example(e19,f10,positive).
example(e19,f11,negative).
example(e19,f12,negative).
example(e19,f13,positive).
example(e19,f14,negative).
example(e19,f15,negative).
example(e19,f16,negative).
example(e19,f17,negative).
example(e19,f18,negative).
example(e19,f19,negative).
example(e19,f20,negative).
example(e19,f21,negative).
example(e19,f22,negative).
example(e19,f23,negative).
example(e19,f24,negative).
example(e19,f25,negative).
example(e19,f26,negative).
example(e19,f27,negative).
example(e19,f28,negative).
example(e19,f29,negative).
example(e19,f30,negative).
example(e19,f31,negative).
example(e19,f32,negative).
example(e19,f33,negative).
example(e19,f34,negative).
example(e19,f35,negative).
example(e19,f36,negative).
example(e19,f37,negative).
example(e19,f38,negative).
example(e19,f39,negative).
example(e19,f40,negative).
example(e19,f41,negative).
example(e19,f42,negative).
example(e19,f43,negative).
example(e19,f44,negative).
example(e19,f45,positive).
example(e19,f46,negative).
example(e19,f47,negative).
example(e19,f48,negative).
example(e19,f49,negative).
example(e19,f50,negative).
example(e19,f51,negative).
example(e19,f52,negative).
example(e19,f53,negative).
example(e19,f54,negative).
example(e19,f55,negative).
example(e19,f56,negative).
example(e19,f57,negative).
example(e19,f58,negative).
example(e19,f59,negative).
example(e19,f60,negative).
example(e19,f61,negative).
example(e19,f62,negative).
example(e19,f63,negative).
example(e19,f64,negative).
example(e19,f65,negative).
example(e19,f66,negative).
example(e19,f67,positive).
example(e19,f68,negative).
example(e19,f69,positive).
example(e19,f70,negative).
example(e19,f71,negative).
example(e19,f72,negative).
example(e19,f73,positive).
example(e19,f74,negative).
example(e19,f75,negative).
example(e19,f76,negative).
example(e19,f77,negative).
example(e19,f78,positive).
example(e19,f79,negative).
example(e19,f80,negative).
example(e19,f81,negative).
example(e19,f82,negative).
example(e19,f83,negative).
example(e19,f84,negative).
example(e19,f85,negative).
example(e20,f1,positive).
example(e20,f2,negative).
example(e20,f3,negative).
example(e20,f4,negative).
example(e20,f5,negative).
example(e20,f6,negative).
example(e20,f7,negative).
example(e20,f8,positive).
example(e20,f9,negative).
example(e20,f10,positive).
example(e20,f11,negative).
example(e20,f12,negative).
example(e20,f13,positive).
example(e20,f14,negative).
example(e20,f15,negative).
example(e20,f16,negative).
example(e20,f17,negative).
example(e20,f18,negative).
example(e20,f19,negative).
example(e20,f20,negative).
example(e20,f21,negative).
example(e20,f22,negative).
example(e20,f23,negative).
example(e20,f24,negative).
example(e20,f25,negative).
example(e20,f26,negative).
example(e20,f27,negative).
example(e20,f28,negative).
example(e20,f29,negative).
example(e20,f30,negative).
example(e20,f31,negative).
example(e20,f32,negative).
example(e20,f33,negative).
example(e20,f34,negative).
example(e20,f35,negative).
example(e20,f36,negative).
example(e20,f37,negative).
example(e20,f38,negative).
example(e20,f39,negative).
example(e20,f40,negative).
example(e20,f41,negative).
example(e20,f42,negative).
example(e20,f43,negative).
example(e20,f44,negative).
example(e20,f45,positive).
example(e20,f46,negative).
example(e20,f47,negative).
example(e20,f48,negative).
example(e20,f49,negative).
example(e20,f50,negative).
example(e20,f51,negative).
example(e20,f52,negative).
example(e20,f53,negative).
example(e20,f54,negative).
example(e20,f55,negative).
example(e20,f56,negative).
example(e20,f57,negative).
example(e20,f58,negative).
example(e20,f59,negative).
example(e20,f60,negative).
example(e20,f61,negative).
example(e20,f62,negative).
example(e20,f63,negative).
example(e20,f64,negative).
example(e20,f65,negative).
example(e20,f66,negative).
example(e20,f67,positive).
example(e20,f68,negative).
example(e20,f69,positive).
example(e20,f70,negative).
example(e20,f71,negative).
example(e20,f72,negative).
example(e20,f73,negative).
example(e20,f74,negative).
example(e20,f75,negative).
example(e20,f76,negative).
example(e20,f77,negative).
example(e20,f78,positive).
example(e20,f79,negative).
example(e20,f80,negative).
example(e20,f81,negative).
example(e20,f82,negative).
example(e20,f83,negative).
example(e20,f84,negative).
example(e20,f85,negative).
example(e21,f1,positive).
example(e21,f2,negative).
example(e21,f3,negative).
example(e21,f4,negative).
example(e21,f5,negative).
example(e21,f6,negative).
example(e21,f7,negative).
example(e21,f8,negative).
example(e21,f9,positive).
example(e21,f10,negative).
example(e21,f11,negative).
example(e21,f12,negative).
example(e21,f13,negative).
example(e21,f14,negative).
example(e21,f15,negative).
example(e21,f16,negative).
example(e21,f17,negative).
example(e21,f18,negative).
example(e21,f19,negative).
example(e21,f20,negative).
example(e21,f21,negative).
example(e21,f22,negative).
example(e21,f23,negative).
example(e21,f24,negative).
example(e21,f25,negative).
example(e21,f26,negative).
example(e21,f27,negative).
example(e21,f28,negative).
example(e21,f29,negative).
example(e21,f30,negative).
example(e21,f31,negative).
example(e21,f32,negative).
example(e21,f33,negative).
example(e21,f34,negative).
example(e21,f35,negative).
example(e21,f36,negative).
example(e21,f37,negative).
example(e21,f38,negative).
example(e21,f39,positive).
example(e21,f40,negative).
example(e21,f41,negative).
example(e21,f42,negative).
example(e21,f43,negative).
example(e21,f44,negative).
example(e21,f45,negative).
example(e21,f46,negative).
example(e21,f47,negative).
example(e21,f48,negative).
example(e21,f49,negative).
example(e21,f50,negative).
example(e21,f51,negative).
example(e21,f52,negative).
example(e21,f53,negative).
example(e21,f54,negative).
example(e21,f55,negative).
example(e21,f56,negative).
example(e21,f57,negative).
example(e21,f58,negative).
example(e21,f59,negative).
example(e21,f60,negative).
example(e21,f61,negative).
example(e21,f62,negative).
example(e21,f63,negative).
example(e21,f64,negative).
example(e21,f65,negative).
example(e21,f66,positive).
example(e21,f67,negative).
example(e21,f68,negative).
example(e21,f69,negative).
example(e21,f70,negative).
example(e21,f71,negative).
example(e21,f72,negative).
example(e21,f73,negative).
example(e21,f74,negative).
example(e21,f75,negative).
example(e21,f76,negative).
example(e21,f77,negative).
example(e21,f78,positive).
example(e21,f79,negative).
example(e21,f80,negative).
example(e21,f81,negative).
example(e21,f82,negative).
example(e21,f83,negative).
example(e21,f84,negative).
example(e21,f85,negative).
example(e22,f1,positive).
example(e22,f2,positive).
example(e22,f3,negative).
example(e22,f4,negative).
example(e22,f5,negative).
example(e22,f6,positive).
example(e22,f7,positive).
example(e22,f8,negative).
example(e22,f9,negative).
example(e22,f10,negative).
example(e22,f11,positive).
example(e22,f12,negative).
example(e22,f13,negative).
example(e22,f14,negative).
example(e22,f15,negative).
example(e22,f16,negative).
example(e22,f17,negative).
example(e22,f18,negative).
example(e22,f19,negative).
example(e22,f20,negative).
example(e22,f21,negative).
example(e22,f22,negative).
example(e22,f23,negative).
example(e22,f24,negative).
example(e22,f25,negative).
example(e22,f26,negative).
example(e22,f27,negative).
example(e22,f28,negative).
example(e22,f29,negative).
example(e22,f30,negative).
example(e22,f31,negative).
example(e22,f32,negative).
example(e22,f33,negative).
example(e22,f34,negative).
example(e22,f35,negative).
example(e22,f36,negative).
example(e22,f37,negative).
example(e22,f38,negative).
example(e22,f39,negative).
example(e22,f40,negative).
example(e22,f41,negative).
example(e22,f42,negative).
example(e22,f43,negative).
example(e22,f44,negative).
example(e22,f45,negative).
example(e22,f46,negative).
example(e22,f47,negative).
example(e22,f48,negative).
example(e22,f49,negative).
example(e22,f50,negative).
example(e22,f51,negative).
example(e22,f52,negative).
example(e22,f53,negative).
example(e22,f54,negative).
example(e22,f55,negative).
example(e22,f56,positive).
example(e22,f57,negative).
example(e22,f58,negative).
example(e22,f59,negative).
example(e22,f60,negative).
example(e22,f61,negative).
example(e22,f62,negative).
example(e22,f63,negative).
example(e22,f64,negative).
example(e22,f65,negative).
example(e22,f66,negative).
example(e22,f67,negative).
example(e22,f68,positive).
example(e22,f69,negative).
example(e22,f70,negative).
example(e22,f71,negative).
example(e22,f72,negative).
example(e22,f73,negative).
example(e22,f74,negative).
example(e22,f75,negative).
example(e22,f76,negative).
example(e22,f77,negative).
example(e22,f78,positive).
example(e22,f79,negative).
example(e22,f80,positive).
example(e22,f81,negative).
example(e22,f82,negative).
example(e22,f83,negative).
example(e22,f84,negative).
example(e22,f85,negative).
example(e23,f1,negative).
example(e23,f2,negative).
example(e23,f3,positive).
example(e23,f4,negative).
example(e23,f5,negative).
example(e23,f6,negative).
example(e23,f7,negative).
example(e23,f8,negative).
example(e23,f9,negative).
example(e23,f10,positive).
example(e23,f11,negative).
example(e23,f12,positive).
example(e23,f13,negative).
example(e23,f14,negative).
example(e23,f15,negative).
example(e23,f16,negative).
example(e23,f17,negative).
example(e23,f18,negative).
example(e23,f19,negative).
example(e23,f20,negative).
example(e23,f21,negative).
example(e23,f22,negative).
example(e23,f23,negative).
example(e23,f24,positive).
example(e23,f25,negative).
example(e23,f26,negative).
example(e23,f27,negative).
example(e23,f28,negative).
example(e23,f29,negative).
example(e23,f30,negative).
example(e23,f31,negative).
example(e23,f32,negative).
example(e23,f33,negative).
example(e23,f34,negative).
example(e23,f35,negative).
example(e23,f36,negative).
example(e23,f37,negative).
example(e23,f38,negative).
example(e23,f39,negative).
example(e23,f40,negative).
example(e23,f41,negative).
example(e23,f42,negative).
example(e23,f43,negative).
example(e23,f44,negative).
example(e23,f45,negative).
example(e23,f46,negative).
example(e23,f47,negative).
example(e23,f48,negative).
example(e23,f49,negative).
example(e23,f50,negative).
example(e23,f51,negative).
example(e23,f52,negative).
example(e23,f53,negative).
example(e23,f54,negative).
example(e23,f55,negative).
example(e23,f56,negative).
example(e23,f57,negative).
example(e23,f58,negative).
example(e23,f59,negative).
example(e23,f60,negative).
example(e23,f61,negative).
example(e23,f62,negative).
example(e23,f63,negative).
example(e23,f64,negative).
example(e23,f65,negative).
example(e23,f66,negative).
example(e23,f67,negative).
example(e23,f68,negative).
example(e23,f69,negative).
example(e23,f70,negative).
example(e23,f71,negative).
example(e23,f72,negative).
example(e23,f73,positive).
example(e23,f74,negative).
example(e23,f75,negative).
example(e23,f76,negative).
example(e23,f77,negative).
example(e23,f78,positive).
example(e23,f79,negative).
example(e23,f80,negative).
example(e23,f81,negative).
example(e23,f82,negative).
example(e23,f83,negative).
example(e23,f84,negative).
example(e23,f85,negative).
example(e24,f1,negative).
example(e24,f2,positive).
example(e24,f3,negative).
example(e24,f4,negative).
example(e24,f5,negative).
example(e24,f6,positive).
example(e24,f7,negative).
example(e24,f8,negative).
example(e24,f9,negative).
example(e24,f10,negative).
example(e24,f11,negative).
example(e24,f12,negative).
example(e24,f13,negative).
example(e24,f14,negative).
example(e24,f15,negative).
example(e24,f16,negative).
example(e24,f17,negative).
example(e24,f18,negative).
example(e24,f19,negative).
example(e24,f20,negative).
example(e24,f21,negative).
example(e24,f22,negative).
example(e24,f23,negative).
example(e24,f24,positive).
example(e24,f25,negative).
example(e24,f26,negative).
example(e24,f27,negative).
example(e24,f28,negative).
example(e24,f29,negative).
example(e24,f30,negative).
example(e24,f31,negative).
example(e24,f32,negative).
example(e24,f33,negative).
example(e24,f34,negative).
example(e24,f35,negative).
example(e24,f36,negative).
example(e24,f37,negative).
example(e24,f38,negative).
example(e24,f39,negative).
example(e24,f40,negative).
example(e24,f41,negative).
example(e24,f42,negative).
example(e24,f43,negative).
example(e24,f44,negative).
example(e24,f45,negative).
example(e24,f46,negative).
example(e24,f47,negative).
example(e24,f48,negative).
example(e24,f49,negative).
example(e24,f50,negative).
example(e24,f51,negative).
example(e24,f52,negative).
example(e24,f53,negative).
example(e24,f54,negative).
example(e24,f55,positive).
example(e24,f56,negative).
example(e24,f57,negative).
example(e24,f58,negative).
example(e24,f59,negative).
example(e24,f60,negative).
example(e24,f61,negative).
example(e24,f62,negative).
example(e24,f63,negative).
example(e24,f64,negative).
example(e24,f65,negative).
example(e24,f66,negative).
example(e24,f67,negative).
example(e24,f68,negative).
example(e24,f69,positive).
example(e24,f70,negative).
example(e24,f71,negative).
example(e24,f72,negative).
example(e24,f73,positive).
example(e24,f74,negative).
example(e24,f75,negative).
example(e24,f76,negative).
example(e24,f77,negative).
example(e24,f78,positive).
example(e24,f79,negative).
example(e24,f80,positive).
example(e24,f81,negative).
example(e24,f82,negative).
example(e24,f83,negative).
example(e24,f84,negative).
example(e24,f85,negative).
example(e25,f1,positive).
example(e25,f2,negative).
example(e25,f3,negative).
example(e25,f4,negative).
example(e25,f5,negative).
example(e25,f6,negative).
example(e25,f7,positive).
example(e25,f8,negative).
example(e25,f9,positive).
example(e25,f10,negative).
example(e25,f11,negative).
example(e25,f12,negative).
example(e25,f13,positive).
example(e25,f14,negative).
example(e25,f15,negative).
example(e25,f16,negative).
example(e25,f17,negative).
example(e25,f18,negative).
example(e25,f19,negative).
example(e25,f20,negative).
example(e25,f21,negative).
example(e25,f22,positive).
example(e25,f23,negative).
example(e25,f24,negative).
example(e25,f25,negative).
example(e25,f26,negative).
example(e25,f27,negative).
example(e25,f28,negative).
example(e25,f29,negative).
example(e25,f30,negative).
example(e25,f31,negative).
example(e25,f32,negative).
example(e25,f33,negative).
example(e25,f34,negative).
example(e25,f35,negative).
example(e25,f36,positive).
example(e25,f37,negative).
example(e25,f38,negative).
example(e25,f39,negative).
example(e25,f40,negative).
example(e25,f41,negative).
example(e25,f42,negative).
example(e25,f43,negative).
example(e25,f44,negative).
example(e25,f45,negative).
example(e25,f46,negative).
example(e25,f47,negative).
example(e25,f48,negative).
example(e25,f49,negative).
example(e25,f50,negative).
example(e25,f51,negative).
example(e25,f52,negative).
example(e25,f53,negative).
example(e25,f54,negative).
example(e25,f55,negative).
example(e25,f56,negative).
example(e25,f57,negative).
example(e25,f58,negative).
example(e25,f59,negative).
example(e25,f60,negative).
example(e25,f61,negative).
example(e25,f62,negative).
example(e25,f63,negative).
example(e25,f64,negative).
example(e25,f65,negative).
example(e25,f66,positive).
example(e25,f67,negative).
example(e25,f68,negative).
example(e25,f69,positive).
example(e25,f70,negative).
example(e25,f71,negative).
example(e25,f72,negative).
example(e25,f73,negative).
example(e25,f74,negative).
example(e25,f75,negative).
example(e25,f76,negative).
example(e25,f77,positive).
example(e25,f78,positive).
example(e25,f79,negative).
example(e25,f80,negative).
example(e25,f81,negative).
example(e25,f82,negative).
example(e25,f83,negative).
example(e25,f84,negative).
example(e25,f85,negative).
example(e26,f1,positive).
example(e26,f2,negative).
example(e26,f3,positive).
example(e26,f4,negative).
example(e26,f5,negative).
example(e26,f6,negative).
example(e26,f7,positive).
example(e26,f8,negative).
example(e26,f9,negative).
example(e26,f10,positive).
example(e26,f11,negative).
example(e26,f12,negative).
example(e26,f13,positive).
example(e26,f14,negative).
example(e26,f15,negative).
example(e26,f16,negative).
example(e26,f17,negative).
example(e26,f18,negative).
example(e26,f19,negative).
example(e26,f20,negative).
example(e26,f21,negative).
example(e26,f22,positive).
example(e26,f23,negative).
example(e26,f24,negative).
example(e26,f25,negative).
example(e26,f26,negative).
example(e26,f27,negative).
example(e26,f28,negative).
example(e26,f29,negative).
example(e26,f30,negative).
example(e26,f31,negative).
example(e26,f32,negative).
example(e26,f33,negative).
example(e26,f34,negative).
example(e26,f35,negative).
example(e26,f36,positive).
example(e26,f37,negative).
example(e26,f38,negative).
example(e26,f39,negative).
example(e26,f40,negative).
example(e26,f41,negative).
example(e26,f42,negative).
example(e26,f43,negative).
example(e26,f44,negative).
example(e26,f45,negative).
example(e26,f46,negative).
example(e26,f47,negative).
example(e26,f48,negative).
example(e26,f49,negative).
example(e26,f50,negative).
example(e26,f51,negative).
example(e26,f52,negative).
example(e26,f53,negative).
example(e26,f54,negative).
example(e26,f55,negative).
example(e26,f56,negative).
example(e26,f57,negative).
example(e26,f58,negative).
example(e26,f59,negative).
example(e26,f60,negative).
example(e26,f61,negative).
example(e26,f62,negative).
example(e26,f63,negative).
example(e26,f64,negative).
example(e26,f65,positive).
example(e26,f66,positive).
example(e26,f67,negative).
example(e26,f68,positive).
example(e26,f69,negative).
example(e26,f70,negative).
example(e26,f71,negative).
example(e26,f72,negative).
example(e26,f73,negative).
example(e26,f74,negative).
example(e26,f75,negative).
example(e26,f76,negative).
example(e26,f77,positive).
example(e26,f78,positive).
example(e26,f79,negative).
example(e26,f80,positive).
example(e26,f81,negative).
example(e26,f82,negative).
example(e26,f83,negative).
example(e26,f84,negative).
example(e26,f85,negative).
example(e27,f1,negative).
example(e27,f2,negative).
example(e27,f3,negative).
example(e27,f4,negative).
example(e27,f5,negative).
example(e27,f6,negative).
example(e27,f7,negative).
example(e27,f8,positive).
example(e27,f9,negative).
example(e27,f10,positive).
example(e27,f11,negative).
example(e27,f12,negative).
example(e27,f13,negative).
example(e27,f14,positive).
example(e27,f15,negative).
example(e27,f16,negative).
example(e27,f17,negative).
example(e27,f18,negative).
example(e27,f19,negative).
example(e27,f20,negative).
example(e27,f21,negative).
example(e27,f22,negative).
example(e27,f23,negative).
example(e27,f24,negative).
example(e27,f25,negative).
example(e27,f26,negative).
example(e27,f27,negative).
example(e27,f28,negative).
example(e27,f29,negative).
example(e27,f30,negative).
example(e27,f31,negative).
example(e27,f32,negative).
example(e27,f33,negative).
example(e27,f34,negative).
example(e27,f35,negative).
example(e27,f36,negative).
example(e27,f37,negative).
example(e27,f38,negative).
example(e27,f39,negative).
example(e27,f40,negative).
example(e27,f41,negative).
example(e27,f42,negative).
example(e27,f43,negative).
example(e27,f44,negative).
example(e27,f45,negative).
example(e27,f46,negative).
example(e27,f47,negative).
example(e27,f48,negative).
example(e27,f49,negative).
example(e27,f50,negative).
example(e27,f51,negative).
example(e27,f52,negative).
example(e27,f53,negative).
example(e27,f54,negative).
example(e27,f55,negative).
example(e27,f56,negative).
example(e27,f57,negative).
example(e27,f58,negative).
example(e27,f59,negative).
example(e27,f60,negative).
example(e27,f61,negative).
example(e27,f62,negative).
example(e27,f63,negative).
example(e27,f64,negative).
example(e27,f65,negative).
example(e27,f66,negative).
example(e27,f67,positive).
example(e27,f68,negative).
example(e27,f69,positive).
example(e27,f70,negative).
example(e27,f71,negative).
example(e27,f72,negative).
example(e27,f73,positive).
example(e27,f74,negative).
example(e27,f75,negative).
example(e27,f76,negative).
example(e27,f77,negative).
example(e27,f78,positive).
example(e27,f79,negative).
example(e27,f80,negative).
example(e27,f81,negative).
example(e27,f82,negative).
example(e27,f83,negative).
example(e27,f84,negative).
example(e27,f85,negative).
example(e28,f1,negative).
example(e28,f2,positive).
example(e28,f3,negative).
example(e28,f4,negative).
example(e28,f5,negative).
example(e28,f6,negative).
example(e28,f7,negative).
example(e28,f8,positive).
example(e28,f9,negative).
example(e28,f10,positive).
example(e28,f11,negative).
example(e28,f12,negative).
example(e28,f13,negative).
example(e28,f14,positive).
example(e28,f15,negative).
example(e28,f16,negative).
example(e28,f17,negative).
example(e28,f18,negative).
example(e28,f19,negative).
example(e28,f20,negative).
example(e28,f21,negative).
example(e28,f22,negative).
example(e28,f23,negative).
example(e28,f24,negative).
example(e28,f25,negative).
example(e28,f26,negative).
example(e28,f27,negative).
example(e28,f28,negative).
example(e28,f29,negative).
example(e28,f30,negative).
example(e28,f31,negative).
example(e28,f32,negative).
example(e28,f33,negative).
example(e28,f34,negative).
example(e28,f35,negative).
example(e28,f36,negative).
example(e28,f37,negative).
example(e28,f38,negative).
example(e28,f39,negative).
example(e28,f40,negative).
example(e28,f41,negative).
example(e28,f42,negative).
example(e28,f43,negative).
example(e28,f44,negative).
example(e28,f45,negative).
example(e28,f46,negative).
example(e28,f47,negative).
example(e28,f48,negative).
example(e28,f49,negative).
example(e28,f50,negative).
example(e28,f51,negative).
example(e28,f52,negative).
example(e28,f53,negative).
example(e28,f54,negative).
example(e28,f55,negative).
example(e28,f56,negative).
example(e28,f57,negative).
example(e28,f58,negative).
example(e28,f59,negative).
example(e28,f60,negative).
example(e28,f61,negative).
example(e28,f62,negative).
example(e28,f63,negative).
example(e28,f64,negative).
example(e28,f65,negative).
example(e28,f66,negative).
example(e28,f67,positive).
example(e28,f68,negative).
example(e28,f69,positive).
example(e28,f70,negative).
example(e28,f71,negative).
example(e28,f72,negative).
example(e28,f73,positive).
example(e28,f74,negative).
example(e28,f75,negative).
example(e28,f76,negative).
example(e28,f77,negative).
example(e28,f78,positive).
example(e28,f79,negative).
example(e28,f80,negative).
example(e28,f81,negative).
example(e28,f82,negative).
example(e28,f83,negative).
example(e28,f84,negative).
example(e28,f85,negative).
example(e29,f1,positive).
example(e29,f2,negative).
example(e29,f3,negative).
example(e29,f4,negative).
example(e29,f5,negative).
example(e29,f6,positive).
example(e29,f7,negative).
example(e29,f8,negative).
example(e29,f9,negative).
example(e29,f10,negative).
example(e29,f11,negative).
example(e29,f12,negative).
example(e29,f13,negative).
example(e29,f14,positive).
example(e29,f15,negative).
example(e29,f16,negative).
example(e29,f17,negative).
example(e29,f18,negative).
example(e29,f19,negative).
example(e29,f20,negative).
example(e29,f21,negative).
example(e29,f22,negative).
example(e29,f23,negative).
example(e29,f24,negative).
example(e29,f25,negative).
example(e29,f26,negative).
example(e29,f27,negative).
example(e29,f28,negative).
example(e29,f29,negative).
example(e29,f30,negative).
example(e29,f31,negative).
example(e29,f32,negative).
example(e29,f33,negative).
example(e29,f34,negative).
example(e29,f35,negative).
example(e29,f36,negative).
example(e29,f37,negative).
example(e29,f38,negative).
example(e29,f39,negative).
example(e29,f40,negative).
example(e29,f41,negative).
example(e29,f42,negative).
example(e29,f43,negative).
example(e29,f44,negative).
example(e29,f45,negative).
example(e29,f46,negative).
example(e29,f47,negative).
example(e29,f48,negative).
example(e29,f49,negative).
example(e29,f50,negative).
example(e29,f51,negative).
example(e29,f52,negative).
example(e29,f53,negative).
example(e29,f54,negative).
example(e29,f55,negative).
example(e29,f56,negative).
example(e29,f57,negative).
example(e29,f58,negative).
example(e29,f59,negative).
example(e29,f60,negative).
example(e29,f61,negative).
example(e29,f62,negative).
example(e29,f63,negative).
example(e29,f64,negative).
example(e29,f65,negative).
example(e29,f66,negative).
example(e29,f67,negative).
example(e29,f68,negative).
example(e29,f69,negative).
example(e29,f70,negative).
example(e29,f71,negative).
example(e29,f72,negative).
example(e29,f73,positive).
example(e29,f74,negative).
example(e29,f75,negative).
example(e29,f76,negative).
example(e29,f77,negative).
example(e29,f78,positive).
example(e29,f79,negative).
example(e29,f80,positive).
example(e29,f81,negative).
example(e29,f82,negative).
example(e29,f83,negative).
example(e29,f84,negative).
example(e29,f85,negative).
example(e30,f1,positive).
example(e30,f2,negative).
example(e30,f3,negative).
example(e30,f4,negative).
example(e30,f5,negative).
example(e30,f6,positive).
example(e30,f7,negative).
example(e30,f8,negative).
example(e30,f9,negative).
example(e30,f10,negative).
example(e30,f11,negative).
example(e30,f12,negative).
example(e30,f13,negative).
example(e30,f14,negative).
example(e30,f15,negative).
example(e30,f16,negative).
example(e30,f17,negative).
example(e30,f18,negative).
example(e30,f19,negative).
example(e30,f20,negative).
example(e30,f21,negative).
example(e30,f22,negative).
example(e30,f23,negative).
example(e30,f24,negative).
example(e30,f25,negative).
example(e30,f26,negative).
example(e30,f27,negative).
example(e30,f28,negative).
example(e30,f29,negative).
example(e30,f30,negative).
example(e30,f31,negative).
example(e30,f32,negative).
example(e30,f33,negative).
example(e30,f34,negative).
example(e30,f35,negative).
example(e30,f36,negative).
example(e30,f37,negative).
example(e30,f38,negative).
example(e30,f39,negative).
example(e30,f40,negative).
example(e30,f41,negative).
example(e30,f42,negative).
example(e30,f43,negative).
example(e30,f44,negative).
example(e30,f45,negative).
example(e30,f46,negative).
example(e30,f47,negative).
example(e30,f48,negative).
example(e30,f49,negative).
example(e30,f50,negative).
example(e30,f51,negative).
example(e30,f52,negative).
example(e30,f53,negative).
example(e30,f54,negative).
example(e30,f55,negative).
example(e30,f56,negative).
example(e30,f57,negative).
example(e30,f58,negative).
example(e30,f59,negative).
example(e30,f60,negative).
example(e30,f61,negative).
example(e30,f62,negative).
example(e30,f63,negative).
example(e30,f64,negative).
example(e30,f65,negative).
example(e30,f66,negative).
example(e30,f67,negative).
example(e30,f68,negative).
example(e30,f69,negative).
example(e30,f70,negative).
example(e30,f71,negative).
example(e30,f72,negative).
example(e30,f73,positive).
example(e30,f74,negative).
example(e30,f75,negative).
example(e30,f76,negative).
example(e30,f77,negative).
example(e30,f78,positive).
example(e30,f79,negative).
example(e30,f80,negative).
example(e30,f81,positive).
example(e30,f82,negative).
example(e30,f83,negative).
example(e30,f84,negative).
example(e30,f85,negative).
example(e31,f1,positive).
example(e31,f2,negative).
example(e31,f3,negative).
example(e31,f4,negative).
example(e31,f5,negative).
example(e31,f6,negative).
example(e31,f7,negative).
example(e31,f8,positive).
example(e31,f9,negative).
example(e31,f10,positive).
example(e31,f11,negative).
example(e31,f12,negative).
example(e31,f13,negative).
example(e31,f14,positive).
example(e31,f15,negative).
example(e31,f16,negative).
example(e31,f17,negative).
example(e31,f18,negative).
example(e31,f19,negative).
example(e31,f20,negative).
example(e31,f21,negative).
example(e31,f22,negative).
example(e31,f23,negative).
example(e31,f24,negative).
example(e31,f25,negative).
example(e31,f26,negative).
example(e31,f27,negative).
example(e31,f28,negative).
example(e31,f29,negative).
example(e31,f30,negative).
example(e31,f31,negative).
example(e31,f32,negative).
example(e31,f33,negative).
example(e31,f34,negative).
example(e31,f35,negative).
example(e31,f36,negative).
example(e31,f37,negative).
example(e31,f38,negative).
example(e31,f39,negative).
example(e31,f40,negative).
example(e31,f41,negative).
example(e31,f42,negative).
example(e31,f43,negative).
example(e31,f44,negative).
example(e31,f45,negative).
example(e31,f46,negative).
example(e31,f47,negative).
example(e31,f48,negative).
example(e31,f49,negative).
example(e31,f50,negative).
example(e31,f51,negative).
example(e31,f52,negative).
example(e31,f53,negative).
example(e31,f54,negative).
example(e31,f55,negative).
example(e31,f56,negative).
example(e31,f57,negative).
example(e31,f58,negative).
example(e31,f59,negative).
example(e31,f60,negative).
example(e31,f61,negative).
example(e31,f62,negative).
example(e31,f63,negative).
example(e31,f64,negative).
example(e31,f65,negative).
example(e31,f66,negative).
example(e31,f67,positive).
example(e31,f68,negative).
example(e31,f69,positive).
example(e31,f70,negative).
example(e31,f71,negative).
example(e31,f72,negative).
example(e31,f73,negative).
example(e31,f74,negative).
example(e31,f75,negative).
example(e31,f76,negative).
example(e31,f77,negative).
example(e31,f78,positive).
example(e31,f79,negative).
example(e31,f80,negative).
example(e31,f81,negative).
example(e31,f82,negative).
example(e31,f83,negative).
example(e31,f84,negative).
example(e31,f85,negative).
example(e32,f1,positive).
example(e32,f2,negative).
example(e32,f3,negative).
example(e32,f4,negative).
example(e32,f5,negative).
example(e32,f6,negative).
example(e32,f7,negative).
example(e32,f8,positive).
example(e32,f9,negative).
example(e32,f10,positive).
example(e32,f11,negative).
example(e32,f12,negative).
example(e32,f13,negative).
example(e32,f14,positive).
example(e32,f15,negative).
example(e32,f16,negative).
example(e32,f17,negative).
example(e32,f18,negative).
example(e32,f19,negative).
example(e32,f20,negative).
example(e32,f21,negative).
example(e32,f22,negative).
example(e32,f23,negative).
example(e32,f24,negative).
example(e32,f25,negative).
example(e32,f26,negative).
example(e32,f27,negative).
example(e32,f28,negative).
example(e32,f29,negative).
example(e32,f30,negative).
example(e32,f31,negative).
example(e32,f32,negative).
example(e32,f33,negative).
example(e32,f34,negative).
example(e32,f35,negative).
example(e32,f36,negative).
example(e32,f37,negative).
example(e32,f38,negative).
example(e32,f39,negative).
example(e32,f40,negative).
example(e32,f41,negative).
example(e32,f42,negative).
example(e32,f43,negative).
example(e32,f44,negative).
example(e32,f45,negative).
example(e32,f46,negative).
example(e32,f47,negative).
example(e32,f48,negative).
example(e32,f49,negative).
example(e32,f50,negative).
example(e32,f51,negative).
example(e32,f52,negative).
example(e32,f53,negative).
example(e32,f54,negative).
example(e32,f55,negative).
example(e32,f56,negative).
example(e32,f57,negative).
example(e32,f58,negative).
example(e32,f59,negative).
example(e32,f60,negative).
example(e32,f61,negative).
example(e32,f62,negative).
example(e32,f63,negative).
example(e32,f64,negative).
example(e32,f65,negative).
example(e32,f66,negative).
example(e32,f67,positive).
example(e32,f68,negative).
example(e32,f69,positive).
example(e32,f70,negative).
example(e32,f71,negative).
example(e32,f72,negative).
example(e32,f73,negative).
example(e32,f74,negative).
example(e32,f75,negative).
example(e32,f76,positive).
example(e32,f77,negative).
example(e32,f78,positive).
example(e32,f79,negative).
example(e32,f80,negative).
example(e32,f81,negative).
example(e32,f82,negative).
example(e32,f83,negative).
example(e32,f84,negative).
example(e32,f85,negative).
example(e33,f1,negative).
example(e33,f2,negative).
example(e33,f3,negative).
example(e33,f4,negative).
example(e33,f5,negative).
example(e33,f6,negative).
example(e33,f7,negative).
example(e33,f8,positive).
example(e33,f9,negative).
example(e33,f10,positive).
example(e33,f11,negative).
example(e33,f12,negative).
example(e33,f13,negative).
example(e33,f14,positive).
example(e33,f15,negative).
example(e33,f16,negative).
example(e33,f17,negative).
example(e33,f18,negative).
example(e33,f19,negative).
example(e33,f20,negative).
example(e33,f21,negative).
example(e33,f22,negative).
example(e33,f23,negative).
example(e33,f24,negative).
example(e33,f25,negative).
example(e33,f26,negative).
example(e33,f27,negative).
example(e33,f28,negative).
example(e33,f29,negative).
example(e33,f30,negative).
example(e33,f31,negative).
example(e33,f32,negative).
example(e33,f33,negative).
example(e33,f34,negative).
example(e33,f35,negative).
example(e33,f36,negative).
example(e33,f37,negative).
example(e33,f38,negative).
example(e33,f39,negative).
example(e33,f40,negative).
example(e33,f41,negative).
example(e33,f42,negative).
example(e33,f43,negative).
example(e33,f44,negative).
example(e33,f45,negative).
example(e33,f46,negative).
example(e33,f47,negative).
example(e33,f48,negative).
example(e33,f49,negative).
example(e33,f50,negative).
example(e33,f51,negative).
example(e33,f52,negative).
example(e33,f53,negative).
example(e33,f54,negative).
example(e33,f55,negative).
example(e33,f56,negative).
example(e33,f57,negative).
example(e33,f58,negative).
example(e33,f59,negative).
example(e33,f60,negative).
example(e33,f61,negative).
example(e33,f62,negative).
example(e33,f63,negative).
example(e33,f64,negative).
example(e33,f65,negative).
example(e33,f66,negative).
example(e33,f67,positive).
example(e33,f68,negative).
example(e33,f69,positive).
example(e33,f70,negative).
example(e33,f71,negative).
example(e33,f72,negative).
example(e33,f73,negative).
example(e33,f74,negative).
example(e33,f75,negative).
example(e33,f76,negative).
example(e33,f77,negative).
example(e33,f78,positive).
example(e33,f79,negative).
example(e33,f80,negative).
example(e33,f81,negative).
example(e33,f82,negative).
example(e33,f83,negative).
example(e33,f84,negative).
example(e33,f85,negative).
example(e34,f1,negative).
example(e34,f2,negative).
example(e34,f3,negative).
example(e34,f4,negative).
example(e34,f5,negative).
example(e34,f6,negative).
example(e34,f7,negative).
example(e34,f8,positive).
example(e34,f9,negative).
example(e34,f10,positive).
example(e34,f11,negative).
example(e34,f12,negative).
example(e34,f13,negative).
example(e34,f14,positive).
example(e34,f15,negative).
example(e34,f16,negative).
example(e34,f17,negative).
example(e34,f18,negative).
example(e34,f19,negative).
example(e34,f20,negative).
example(e34,f21,negative).
example(e34,f22,negative).
example(e34,f23,negative).
example(e34,f24,negative).
example(e34,f25,negative).
example(e34,f26,negative).
example(e34,f27,negative).
example(e34,f28,negative).
example(e34,f29,negative).
example(e34,f30,negative).
example(e34,f31,negative).
example(e34,f32,negative).
example(e34,f33,negative).
example(e34,f34,negative).
example(e34,f35,negative).
example(e34,f36,negative).
example(e34,f37,negative).
example(e34,f38,negative).
example(e34,f39,negative).
example(e34,f40,negative).
example(e34,f41,negative).
example(e34,f42,negative).
example(e34,f43,negative).
example(e34,f44,negative).
example(e34,f45,negative).
example(e34,f46,negative).
example(e34,f47,negative).
example(e34,f48,negative).
example(e34,f49,negative).
example(e34,f50,negative).
example(e34,f51,negative).
example(e34,f52,negative).
example(e34,f53,negative).
example(e34,f54,negative).
example(e34,f55,negative).
example(e34,f56,negative).
example(e34,f57,negative).
example(e34,f58,negative).
example(e34,f59,negative).
example(e34,f60,negative).
example(e34,f61,negative).
example(e34,f62,negative).
example(e34,f63,negative).
example(e34,f64,negative).
example(e34,f65,negative).
example(e34,f66,negative).
example(e34,f67,positive).
example(e34,f68,negative).
example(e34,f69,positive).
example(e34,f70,negative).
example(e34,f71,negative).
example(e34,f72,negative).
example(e34,f73,negative).
example(e34,f74,negative).
example(e34,f75,negative).
example(e34,f76,positive).
example(e34,f77,negative).
example(e34,f78,positive).
example(e34,f79,negative).
example(e34,f80,negative).
example(e34,f81,negative).
example(e34,f82,negative).
example(e34,f83,negative).
example(e34,f84,negative).
example(e34,f85,negative).
example(e35,f1,negative).
example(e35,f2,negative).
example(e35,f3,negative).
example(e35,f4,negative).
example(e35,f5,positive).
example(e35,f6,negative).
example(e35,f7,negative).
example(e35,f8,negative).
example(e35,f9,negative).
example(e35,f10,negative).
example(e35,f11,negative).
example(e35,f12,negative).
example(e35,f13,negative).
example(e35,f14,positive).
example(e35,f15,negative).
example(e35,f16,negative).
example(e35,f17,negative).
example(e35,f18,negative).
example(e35,f19,negative).
example(e35,f20,negative).
example(e35,f21,negative).
example(e35,f22,negative).
example(e35,f23,negative).
example(e35,f24,negative).
example(e35,f25,negative).
example(e35,f26,negative).
example(e35,f27,negative).
example(e35,f28,negative).
example(e35,f29,negative).
example(e35,f30,negative).
example(e35,f31,negative).
example(e35,f32,negative).
example(e35,f33,negative).
example(e35,f34,negative).
example(e35,f35,negative).
example(e35,f36,negative).
example(e35,f37,negative).
example(e35,f38,negative).
example(e35,f39,negative).
example(e35,f40,negative).
example(e35,f41,negative).
example(e35,f42,negative).
example(e35,f43,negative).
example(e35,f44,negative).
example(e35,f45,negative).
example(e35,f46,negative).
example(e35,f47,negative).
example(e35,f48,negative).
example(e35,f49,negative).
example(e35,f50,negative).
example(e35,f51,negative).
example(e35,f52,negative).
example(e35,f53,negative).
example(e35,f54,negative).
example(e35,f55,negative).
example(e35,f56,negative).
example(e35,f57,negative).
example(e35,f58,negative).
example(e35,f59,negative).
example(e35,f60,negative).
example(e35,f61,negative).
example(e35,f62,negative).
example(e35,f63,negative).
example(e35,f64,negative).
example(e35,f65,negative).
example(e35,f66,negative).
example(e35,f67,negative).
example(e35,f68,negative).
example(e35,f69,negative).
example(e35,f70,negative).
example(e35,f71,negative).
example(e35,f72,negative).
example(e35,f73,negative).
example(e35,f74,negative).
example(e35,f75,negative).
example(e35,f76,negative).
example(e35,f77,negative).
example(e35,f78,positive).
example(e35,f79,negative).
example(e35,f80,negative).
example(e35,f81,negative).
example(e35,f82,negative).
example(e35,f83,negative).
example(e35,f84,negative).
example(e35,f85,negative).
example(e36,f1,positive).
example(e36,f2,negative).
example(e36,f3,negative).
example(e36,f4,negative).
example(e36,f5,negative).
example(e36,f6,negative).
example(e36,f7,positive).
example(e36,f8,negative).
example(e36,f9,negative).
example(e36,f10,negative).
example(e36,f11,negative).
example(e36,f12,negative).
example(e36,f13,negative).
example(e36,f14,positive).
example(e36,f15,negative).
example(e36,f16,negative).
example(e36,f17,negative).
example(e36,f18,negative).
example(e36,f19,negative).
example(e36,f20,negative).
example(e36,f21,negative).
example(e36,f22,negative).
example(e36,f23,negative).
example(e36,f24,negative).
example(e36,f25,negative).
example(e36,f26,negative).
example(e36,f27,negative).
example(e36,f28,negative).
example(e36,f29,negative).
example(e36,f30,negative).
example(e36,f31,negative).
example(e36,f32,negative).
example(e36,f33,negative).
example(e36,f34,negative).
example(e36,f35,negative).
example(e36,f36,negative).
example(e36,f37,negative).
example(e36,f38,negative).
example(e36,f39,negative).
example(e36,f40,negative).
example(e36,f41,negative).
example(e36,f42,negative).
example(e36,f43,negative).
example(e36,f44,negative).
example(e36,f45,negative).
example(e36,f46,negative).
example(e36,f47,negative).
example(e36,f48,negative).
example(e36,f49,negative).
example(e36,f50,negative).
example(e36,f51,negative).
example(e36,f52,negative).
example(e36,f53,negative).
example(e36,f54,negative).
example(e36,f55,negative).
example(e36,f56,negative).
example(e36,f57,negative).
example(e36,f58,negative).
example(e36,f59,negative).
example(e36,f60,negative).
example(e36,f61,negative).
example(e36,f62,negative).
example(e36,f63,negative).
example(e36,f64,negative).
example(e36,f65,negative).
example(e36,f66,negative).
example(e36,f67,positive).
example(e36,f68,negative).
example(e36,f69,negative).
example(e36,f70,negative).
example(e36,f71,negative).
example(e36,f72,negative).
example(e36,f73,negative).
example(e36,f74,negative).
example(e36,f75,negative).
example(e36,f76,negative).
example(e36,f77,negative).
example(e36,f78,positive).
example(e36,f79,negative).
example(e36,f80,negative).
example(e36,f81,negative).
example(e36,f82,negative).
example(e36,f83,negative).
example(e36,f84,negative).
example(e36,f85,negative).
example(e37,f1,positive).
example(e37,f2,negative).
example(e37,f3,negative).
example(e37,f4,negative).
example(e37,f5,negative).
example(e37,f6,negative).
example(e37,f7,negative).
example(e37,f8,positive).
example(e37,f9,negative).
example(e37,f10,negative).
example(e37,f11,negative).
example(e37,f12,negative).
example(e37,f13,negative).
example(e37,f14,positive).
example(e37,f15,negative).
example(e37,f16,negative).
example(e37,f17,negative).
example(e37,f18,negative).
example(e37,f19,negative).
example(e37,f20,negative).
example(e37,f21,negative).
example(e37,f22,negative).
example(e37,f23,negative).
example(e37,f24,negative).
example(e37,f25,negative).
example(e37,f26,negative).
example(e37,f27,negative).
example(e37,f28,negative).
example(e37,f29,negative).
example(e37,f30,negative).
example(e37,f31,negative).
example(e37,f32,negative).
example(e37,f33,negative).
example(e37,f34,negative).
example(e37,f35,negative).
example(e37,f36,negative).
example(e37,f37,negative).
example(e37,f38,negative).
example(e37,f39,negative).
example(e37,f40,negative).
example(e37,f41,negative).
example(e37,f42,negative).
example(e37,f43,negative).
example(e37,f44,negative).
example(e37,f45,negative).
example(e37,f46,negative).
example(e37,f47,negative).
example(e37,f48,negative).
example(e37,f49,negative).
example(e37,f50,negative).
example(e37,f51,negative).
example(e37,f52,negative).
example(e37,f53,negative).
example(e37,f54,negative).
example(e37,f55,negative).
example(e37,f56,negative).
example(e37,f57,negative).
example(e37,f58,negative).
example(e37,f59,negative).
example(e37,f60,negative).
example(e37,f61,negative).
example(e37,f62,negative).
example(e37,f63,negative).
example(e37,f64,negative).
example(e37,f65,negative).
example(e37,f66,negative).
example(e37,f67,positive).
example(e37,f68,negative).
example(e37,f69,negative).
example(e37,f70,negative).
example(e37,f71,negative).
example(e37,f72,negative).
example(e37,f73,negative).
example(e37,f74,negative).
example(e37,f75,negative).
example(e37,f76,positive).
example(e37,f77,negative).
example(e37,f78,positive).
example(e37,f79,negative).
example(e37,f80,negative).
example(e37,f81,negative).
example(e37,f82,negative).
example(e37,f83,negative).
example(e37,f84,negative).
example(e37,f85,negative).
example(e38,f1,positive).
example(e38,f2,negative).
example(e38,f3,negative).
example(e38,f4,negative).
example(e38,f5,negative).
example(e38,f6,negative).
example(e38,f7,negative).
example(e38,f8,positive).
example(e38,f9,negative).
example(e38,f10,positive).
example(e38,f11,negative).
example(e38,f12,negative).
example(e38,f13,negative).
example(e38,f14,positive).
example(e38,f15,negative).
example(e38,f16,negative).
example(e38,f17,negative).
example(e38,f18,negative).
example(e38,f19,negative).
example(e38,f20,negative).
example(e38,f21,negative).
example(e38,f22,negative).
example(e38,f23,negative).
example(e38,f24,negative).
example(e38,f25,negative).
example(e38,f26,negative).
example(e38,f27,negative).
example(e38,f28,negative).
example(e38,f29,negative).
example(e38,f30,negative).
example(e38,f31,negative).
example(e38,f32,negative).
example(e38,f33,negative).
example(e38,f34,negative).
example(e38,f35,negative).
example(e38,f36,negative).
example(e38,f37,negative).
example(e38,f38,negative).
example(e38,f39,negative).
example(e38,f40,negative).
example(e38,f41,negative).
example(e38,f42,negative).
example(e38,f43,negative).
example(e38,f44,negative).
example(e38,f45,negative).
example(e38,f46,negative).
example(e38,f47,negative).
example(e38,f48,negative).
example(e38,f49,negative).
example(e38,f50,negative).
example(e38,f51,negative).
example(e38,f52,negative).
example(e38,f53,negative).
example(e38,f54,negative).
example(e38,f55,negative).
example(e38,f56,negative).
example(e38,f57,negative).
example(e38,f58,negative).
example(e38,f59,negative).
example(e38,f60,negative).
example(e38,f61,negative).
example(e38,f62,negative).
example(e38,f63,negative).
example(e38,f64,negative).
example(e38,f65,negative).
example(e38,f66,negative).
example(e38,f67,positive).
example(e38,f68,negative).
example(e38,f69,positive).
example(e38,f70,negative).
example(e38,f71,negative).
example(e38,f72,negative).
example(e38,f73,negative).
example(e38,f74,negative).
example(e38,f75,negative).
example(e38,f76,negative).
example(e38,f77,negative).
example(e38,f78,positive).
example(e38,f79,negative).
example(e38,f80,negative).
example(e38,f81,negative).
example(e38,f82,negative).
example(e38,f83,negative).
example(e38,f84,negative).
example(e38,f85,negative).
example(e39,f1,negative).
example(e39,f2,negative).
example(e39,f3,negative).
example(e39,f4,negative).
example(e39,f5,positive).
example(e39,f6,negative).
example(e39,f7,negative).
example(e39,f8,positive).
example(e39,f9,negative).
example(e39,f10,positive).
example(e39,f11,positive).
example(e39,f12,negative).
example(e39,f13,negative).
example(e39,f14,positive).
example(e39,f15,negative).
example(e39,f16,negative).
example(e39,f17,negative).
example(e39,f18,negative).
example(e39,f19,negative).
example(e39,f20,negative).
example(e39,f21,negative).
example(e39,f22,negative).
example(e39,f23,negative).
example(e39,f24,negative).
example(e39,f25,negative).
example(e39,f26,negative).
example(e39,f27,negative).
example(e39,f28,negative).
example(e39,f29,negative).
example(e39,f30,negative).
example(e39,f31,negative).
example(e39,f32,negative).
example(e39,f33,negative).
example(e39,f34,negative).
example(e39,f35,negative).
example(e39,f36,negative).
example(e39,f37,negative).
example(e39,f38,negative).
example(e39,f39,negative).
example(e39,f40,negative).
example(e39,f41,negative).
example(e39,f42,negative).
example(e39,f43,negative).
example(e39,f44,negative).
example(e39,f45,negative).
example(e39,f46,negative).
example(e39,f47,negative).
example(e39,f48,negative).
example(e39,f49,negative).
example(e39,f50,negative).
example(e39,f51,negative).
example(e39,f52,negative).
example(e39,f53,negative).
example(e39,f54,negative).
example(e39,f55,negative).
example(e39,f56,negative).
example(e39,f57,negative).
example(e39,f58,negative).
example(e39,f59,negative).
example(e39,f60,negative).
example(e39,f61,negative).
example(e39,f62,negative).
example(e39,f63,negative).
example(e39,f64,negative).
example(e39,f65,negative).
example(e39,f66,negative).
example(e39,f67,positive).
example(e39,f68,negative).
example(e39,f69,positive).
example(e39,f70,negative).
example(e39,f71,negative).
example(e39,f72,negative).
example(e39,f73,negative).
example(e39,f74,negative).
example(e39,f75,negative).
example(e39,f76,negative).
example(e39,f77,positive).
example(e39,f78,positive).
example(e39,f79,negative).
example(e39,f80,negative).
example(e39,f81,negative).
example(e39,f82,negative).
example(e39,f83,negative).
example(e39,f84,negative).
example(e39,f85,negative).
example(e40,f1,negative).
example(e40,f2,negative).
example(e40,f3,positive).
example(e40,f4,negative).
example(e40,f5,negative).
example(e40,f6,negative).
example(e40,f7,positive).
example(e40,f8,negative).
example(e40,f9,negative).
example(e40,f10,positive).
example(e40,f11,negative).
example(e40,f12,negative).
example(e40,f13,negative).
example(e40,f14,negative).
example(e40,f15,negative).
example(e40,f16,negative).
example(e40,f17,negative).
example(e40,f18,negative).
example(e40,f19,negative).
example(e40,f20,negative).
example(e40,f21,negative).
example(e40,f22,negative).
example(e40,f23,negative).
example(e40,f24,negative).
example(e40,f25,negative).
example(e40,f26,negative).
example(e40,f27,negative).
example(e40,f28,negative).
example(e40,f29,negative).
example(e40,f30,negative).
example(e40,f31,negative).
example(e40,f32,negative).
example(e40,f33,negative).
example(e40,f34,negative).
example(e40,f35,negative).
example(e40,f36,negative).
example(e40,f37,negative).
example(e40,f38,negative).
example(e40,f39,negative).
example(e40,f40,negative).
example(e40,f41,negative).
example(e40,f42,negative).
example(e40,f43,negative).
example(e40,f44,negative).
example(e40,f45,negative).
example(e40,f46,negative).
example(e40,f47,negative).
example(e40,f48,negative).
example(e40,f49,negative).
example(e40,f50,negative).
example(e40,f51,negative).
example(e40,f52,negative).
example(e40,f53,negative).
example(e40,f54,negative).
example(e40,f55,negative).
example(e40,f56,negative).
example(e40,f57,negative).
example(e40,f58,negative).
example(e40,f59,negative).
example(e40,f60,negative).
example(e40,f61,negative).
example(e40,f62,negative).
example(e40,f63,negative).
example(e40,f64,negative).
example(e40,f65,negative).
example(e40,f66,positive).
example(e40,f67,negative).
example(e40,f68,positive).
example(e40,f69,negative).
example(e40,f70,negative).
example(e40,f71,negative).
example(e40,f72,negative).
example(e40,f73,positive).
example(e40,f74,negative).
example(e40,f75,negative).
example(e40,f76,negative).
example(e40,f77,negative).
example(e40,f78,positive).
example(e40,f79,negative).
example(e40,f80,negative).
example(e40,f81,negative).
example(e40,f82,negative).
example(e40,f83,negative).
example(e40,f84,negative).
example(e40,f85,negative).
example(e41,f1,positive).
example(e41,f2,negative).
example(e41,f3,negative).
example(e41,f4,negative).
example(e41,f5,negative).
example(e41,f6,negative).
example(e41,f7,negative).
example(e41,f8,positive).
example(e41,f9,negative).
example(e41,f10,positive).
example(e41,f11,negative).
example(e41,f12,negative).
example(e41,f13,negative).
example(e41,f14,positive).
example(e41,f15,negative).
example(e41,f16,negative).
example(e41,f17,negative).
example(e41,f18,negative).
example(e41,f19,negative).
example(e41,f20,negative).
example(e41,f21,negative).
example(e41,f22,negative).
example(e41,f23,negative).
example(e41,f24,negative).
example(e41,f25,negative).
example(e41,f26,negative).
example(e41,f27,negative).
example(e41,f28,negative).
example(e41,f29,negative).
example(e41,f30,negative).
example(e41,f31,negative).
example(e41,f32,negative).
example(e41,f33,negative).
example(e41,f34,negative).
example(e41,f35,negative).
example(e41,f36,negative).
example(e41,f37,negative).
example(e41,f38,negative).
example(e41,f39,negative).
example(e41,f40,negative).
example(e41,f41,negative).
example(e41,f42,negative).
example(e41,f43,negative).
example(e41,f44,negative).
example(e41,f45,negative).
example(e41,f46,negative).
example(e41,f47,negative).
example(e41,f48,negative).
example(e41,f49,negative).
example(e41,f50,negative).
example(e41,f51,negative).
example(e41,f52,negative).
example(e41,f53,negative).
example(e41,f54,negative).
example(e41,f55,negative).
example(e41,f56,negative).
example(e41,f57,negative).
example(e41,f58,negative).
example(e41,f59,negative).
example(e41,f60,negative).
example(e41,f61,negative).
example(e41,f62,negative).
example(e41,f63,negative).
example(e41,f64,negative).
example(e41,f65,negative).
example(e41,f66,negative).
example(e41,f67,positive).
example(e41,f68,positive).
example(e41,f69,negative).
example(e41,f70,negative).
example(e41,f71,negative).
example(e41,f72,negative).
example(e41,f73,negative).
example(e41,f74,negative).
example(e41,f75,negative).
example(e41,f76,positive).
example(e41,f77,negative).
example(e41,f78,positive).
example(e41,f79,negative).
example(e41,f80,negative).
example(e41,f81,negative).
example(e41,f82,negative).
example(e41,f83,negative).
example(e41,f84,negative).
example(e41,f85,negative).
example(e42,f1,positive).
example(e42,f2,negative).
example(e42,f3,negative).
example(e42,f4,negative).
example(e42,f5,negative).
example(e42,f6,negative).
example(e42,f7,negative).
example(e42,f8,positive).
example(e42,f9,positive).
example(e42,f10,negative).
example(e42,f11,negative).
example(e42,f12,negative).
example(e42,f13,negative).
example(e42,f14,positive).
example(e42,f15,negative).
example(e42,f16,negative).
example(e42,f17,negative).
example(e42,f18,negative).
example(e42,f19,negative).
example(e42,f20,negative).
example(e42,f21,negative).
example(e42,f22,negative).
example(e42,f23,negative).
example(e42,f24,negative).
example(e42,f25,negative).
example(e42,f26,negative).
example(e42,f27,negative).
example(e42,f28,negative).
example(e42,f29,negative).
example(e42,f30,negative).
example(e42,f31,negative).
example(e42,f32,negative).
example(e42,f33,negative).
example(e42,f34,negative).
example(e42,f35,negative).
example(e42,f36,negative).
example(e42,f37,negative).
example(e42,f38,negative).
example(e42,f39,negative).
example(e42,f40,negative).
example(e42,f41,negative).
example(e42,f42,negative).
example(e42,f43,negative).
example(e42,f44,negative).
example(e42,f45,negative).
example(e42,f46,negative).
example(e42,f47,negative).
example(e42,f48,negative).
example(e42,f49,negative).
example(e42,f50,negative).
example(e42,f51,negative).
example(e42,f52,negative).
example(e42,f53,negative).
example(e42,f54,negative).
example(e42,f55,negative).
example(e42,f56,negative).
example(e42,f57,negative).
example(e42,f58,negative).
example(e42,f59,negative).
example(e42,f60,negative).
example(e42,f61,negative).
example(e42,f62,negative).
example(e42,f63,negative).
example(e42,f64,negative).
example(e42,f65,negative).
example(e42,f66,negative).
example(e42,f67,positive).
example(e42,f68,positive).
example(e42,f69,negative).
example(e42,f70,negative).
example(e42,f71,negative).
example(e42,f72,negative).
example(e42,f73,negative).
example(e42,f74,negative).
example(e42,f75,negative).
example(e42,f76,negative).
example(e42,f77,negative).
example(e42,f78,positive).
example(e42,f79,negative).
example(e42,f80,negative).
example(e42,f81,negative).
example(e42,f82,negative).
example(e42,f83,negative).
example(e42,f84,negative).
example(e42,f85,negative).
example(e43,f1,negative).
example(e43,f2,negative).
example(e43,f3,negative).
example(e43,f4,negative).
example(e43,f5,negative).
example(e43,f6,negative).
example(e43,f7,negative).
example(e43,f8,positive).
example(e43,f9,negative).
example(e43,f10,positive).
example(e43,f11,negative).
example(e43,f12,negative).
example(e43,f13,negative).
example(e43,f14,positive).
example(e43,f15,negative).
example(e43,f16,negative).
example(e43,f17,negative).
example(e43,f18,negative).
example(e43,f19,negative).
example(e43,f20,negative).
example(e43,f21,negative).
example(e43,f22,positive).
example(e43,f23,negative).
example(e43,f24,negative).
example(e43,f25,negative).
example(e43,f26,negative).
example(e43,f27,negative).
example(e43,f28,negative).
example(e43,f29,negative).
example(e43,f30,negative).
example(e43,f31,negative).
example(e43,f32,negative).
example(e43,f33,negative).
example(e43,f34,negative).
example(e43,f35,negative).
example(e43,f36,negative).
example(e43,f37,negative).
example(e43,f38,negative).
example(e43,f39,negative).
example(e43,f40,negative).
example(e43,f41,negative).
example(e43,f42,negative).
example(e43,f43,negative).
example(e43,f44,negative).
example(e43,f45,negative).
example(e43,f46,negative).
example(e43,f47,negative).
example(e43,f48,negative).
example(e43,f49,negative).
example(e43,f50,negative).
example(e43,f51,negative).
example(e43,f52,negative).
example(e43,f53,negative).
example(e43,f54,negative).
example(e43,f55,negative).
example(e43,f56,negative).
example(e43,f57,negative).
example(e43,f58,negative).
example(e43,f59,negative).
example(e43,f60,negative).
example(e43,f61,negative).
example(e43,f62,negative).
example(e43,f63,negative).
example(e43,f64,negative).
example(e43,f65,positive).
example(e43,f66,negative).
example(e43,f67,positive).
example(e43,f68,positive).
example(e43,f69,negative).
example(e43,f70,negative).
example(e43,f71,negative).
example(e43,f72,negative).
example(e43,f73,negative).
example(e43,f74,negative).
example(e43,f75,negative).
example(e43,f76,positive).
example(e43,f77,negative).
example(e43,f78,positive).
example(e43,f79,negative).
example(e43,f80,negative).
example(e43,f81,negative).
example(e43,f82,negative).
example(e43,f83,negative).
example(e43,f84,negative).
example(e43,f85,negative).
example(e44,f1,negative).
example(e44,f2,negative).
example(e44,f3,negative).
example(e44,f4,negative).
example(e44,f5,negative).
example(e44,f6,negative).
example(e44,f7,negative).
example(e44,f8,positive).
example(e44,f9,positive).
example(e44,f10,negative).
example(e44,f11,negative).
example(e44,f12,negative).
example(e44,f13,negative).
example(e44,f14,positive).
example(e44,f15,negative).
example(e44,f16,negative).
example(e44,f17,negative).
example(e44,f18,negative).
example(e44,f19,negative).
example(e44,f20,negative).
example(e44,f21,negative).
example(e44,f22,positive).
example(e44,f23,negative).
example(e44,f24,negative).
example(e44,f25,negative).
example(e44,f26,negative).
example(e44,f27,negative).
example(e44,f28,negative).
example(e44,f29,negative).
example(e44,f30,negative).
example(e44,f31,negative).
example(e44,f32,negative).
example(e44,f33,negative).
example(e44,f34,negative).
example(e44,f35,negative).
example(e44,f36,negative).
example(e44,f37,negative).
example(e44,f38,negative).
example(e44,f39,negative).
example(e44,f40,negative).
example(e44,f41,negative).
example(e44,f42,negative).
example(e44,f43,negative).
example(e44,f44,negative).
example(e44,f45,negative).
example(e44,f46,negative).
example(e44,f47,negative).
example(e44,f48,negative).
example(e44,f49,negative).
example(e44,f50,negative).
example(e44,f51,negative).
example(e44,f52,negative).
example(e44,f53,negative).
example(e44,f54,negative).
example(e44,f55,negative).
example(e44,f56,negative).
example(e44,f57,negative).
example(e44,f58,negative).
example(e44,f59,negative).
example(e44,f60,negative).
example(e44,f61,negative).
example(e44,f62,negative).
example(e44,f63,negative).
example(e44,f64,negative).
example(e44,f65,positive).
example(e44,f66,negative).
example(e44,f67,positive).
example(e44,f68,negative).
example(e44,f69,positive).
example(e44,f70,negative).
example(e44,f71,negative).
example(e44,f72,negative).
example(e44,f73,positive).
example(e44,f74,negative).
example(e44,f75,negative).
example(e44,f76,negative).
example(e44,f77,negative).
example(e44,f78,positive).
example(e44,f79,negative).
example(e44,f80,negative).
example(e44,f81,negative).
example(e44,f82,negative).
example(e44,f83,negative).
example(e44,f84,negative).
example(e44,f85,negative).
example(e45,f1,negative).
example(e45,f2,negative).
example(e45,f3,positive).
example(e45,f4,negative).
example(e45,f5,negative).
example(e45,f6,negative).
example(e45,f7,negative).
example(e45,f8,positive).
example(e45,f9,negative).
example(e45,f10,positive).
example(e45,f11,negative).
example(e45,f12,negative).
example(e45,f13,negative).
example(e45,f14,negative).
example(e45,f15,negative).
example(e45,f16,negative).
example(e45,f17,negative).
example(e45,f18,negative).
example(e45,f19,negative).
example(e45,f20,negative).
example(e45,f21,negative).
example(e45,f22,negative).
example(e45,f23,negative).
example(e45,f24,negative).
example(e45,f25,negative).
example(e45,f26,negative).
example(e45,f27,negative).
example(e45,f28,negative).
example(e45,f29,negative).
example(e45,f30,negative).
example(e45,f31,negative).
example(e45,f32,negative).
example(e45,f33,negative).
example(e45,f34,negative).
example(e45,f35,negative).
example(e45,f36,negative).
example(e45,f37,negative).
example(e45,f38,negative).
example(e45,f39,negative).
example(e45,f40,negative).
example(e45,f41,negative).
example(e45,f42,negative).
example(e45,f43,negative).
example(e45,f44,negative).
example(e45,f45,negative).
example(e45,f46,negative).
example(e45,f47,negative).
example(e45,f48,negative).
example(e45,f49,negative).
example(e45,f50,negative).
example(e45,f51,negative).
example(e45,f52,negative).
example(e45,f53,negative).
example(e45,f54,negative).
example(e45,f55,negative).
example(e45,f56,negative).
example(e45,f57,negative).
example(e45,f58,negative).
example(e45,f59,negative).
example(e45,f60,negative).
example(e45,f61,negative).
example(e45,f62,negative).
example(e45,f63,negative).
example(e45,f64,negative).
example(e45,f65,negative).
example(e45,f66,negative).
example(e45,f67,positive).
example(e45,f68,positive).
example(e45,f69,negative).
example(e45,f70,negative).
example(e45,f71,negative).
example(e45,f72,negative).
example(e45,f73,positive).
example(e45,f74,negative).
example(e45,f75,negative).
example(e45,f76,negative).
example(e45,f77,negative).
example(e45,f78,positive).
example(e45,f79,negative).
example(e45,f80,negative).
example(e45,f81,negative).
example(e45,f82,negative).
example(e45,f83,negative).
example(e45,f84,negative).
example(e45,f85,negative).
example(e46,f1,negative).
example(e46,f2,negative).
example(e46,f3,positive).
example(e46,f4,negative).
example(e46,f5,negative).
example(e46,f6,negative).
example(e46,f7,negative).
example(e46,f8,positive).
example(e46,f9,positive).
example(e46,f10,negative).
example(e46,f11,negative).
example(e46,f12,negative).
example(e46,f13,negative).
example(e46,f14,negative).
example(e46,f15,negative).
example(e46,f16,negative).
example(e46,f17,negative).
example(e46,f18,negative).
example(e46,f19,negative).
example(e46,f20,negative).
example(e46,f21,negative).
example(e46,f22,negative).
example(e46,f23,negative).
example(e46,f24,negative).
example(e46,f25,negative).
example(e46,f26,negative).
example(e46,f27,negative).
example(e46,f28,negative).
example(e46,f29,negative).
example(e46,f30,negative).
example(e46,f31,negative).
example(e46,f32,negative).
example(e46,f33,negative).
example(e46,f34,negative).
example(e46,f35,negative).
example(e46,f36,negative).
example(e46,f37,negative).
example(e46,f38,negative).
example(e46,f39,negative).
example(e46,f40,negative).
example(e46,f41,negative).
example(e46,f42,negative).
example(e46,f43,positive).
example(e46,f44,negative).
example(e46,f45,negative).
example(e46,f46,negative).
example(e46,f47,negative).
example(e46,f48,negative).
example(e46,f49,negative).
example(e46,f50,negative).
example(e46,f51,negative).
example(e46,f52,negative).
example(e46,f53,negative).
example(e46,f54,negative).
example(e46,f55,negative).
example(e46,f56,negative).
example(e46,f57,negative).
example(e46,f58,negative).
example(e46,f59,negative).
example(e46,f60,negative).
example(e46,f61,negative).
example(e46,f62,negative).
example(e46,f63,negative).
example(e46,f64,negative).
example(e46,f65,negative).
example(e46,f66,negative).
example(e46,f67,positive).
example(e46,f68,negative).
example(e46,f69,positive).
example(e46,f70,negative).
example(e46,f71,negative).
example(e46,f72,negative).
example(e46,f73,positive).
example(e46,f74,negative).
example(e46,f75,negative).
example(e46,f76,negative).
example(e46,f77,negative).
example(e46,f78,positive).
example(e46,f79,negative).
example(e46,f80,negative).
example(e46,f81,negative).
example(e46,f82,negative).
example(e46,f83,negative).
example(e46,f84,negative).
example(e46,f85,negative).
example(e47,f1,positive).
example(e47,f2,negative).
example(e47,f3,negative).
example(e47,f4,negative).
example(e47,f5,negative).
example(e47,f6,negative).
example(e47,f7,negative).
example(e47,f8,positive).
example(e47,f9,negative).
example(e47,f10,positive).
example(e47,f11,negative).
example(e47,f12,negative).
example(e47,f13,negative).
example(e47,f14,positive).
example(e47,f15,negative).
example(e47,f16,negative).
example(e47,f17,negative).
example(e47,f18,negative).
example(e47,f19,negative).
example(e47,f20,negative).
example(e47,f21,negative).
example(e47,f22,positive).
example(e47,f23,negative).
example(e47,f24,negative).
example(e47,f25,negative).
example(e47,f26,negative).
example(e47,f27,negative).
example(e47,f28,negative).
example(e47,f29,negative).
example(e47,f30,negative).
example(e47,f31,negative).
example(e47,f32,negative).
example(e47,f33,negative).
example(e47,f34,negative).
example(e47,f35,negative).
example(e47,f36,negative).
example(e47,f37,negative).
example(e47,f38,negative).
example(e47,f39,negative).
example(e47,f40,negative).
example(e47,f41,negative).
example(e47,f42,negative).
example(e47,f43,negative).
example(e47,f44,negative).
example(e47,f45,negative).
example(e47,f46,negative).
example(e47,f47,negative).
example(e47,f48,negative).
example(e47,f49,negative).
example(e47,f50,negative).
example(e47,f51,negative).
example(e47,f52,negative).
example(e47,f53,negative).
example(e47,f54,negative).
example(e47,f55,negative).
example(e47,f56,negative).
example(e47,f57,negative).
example(e47,f58,negative).
example(e47,f59,negative).
example(e47,f60,negative).
example(e47,f61,negative).
example(e47,f62,negative).
example(e47,f63,negative).
example(e47,f64,negative).
example(e47,f65,negative).
example(e47,f66,negative).
example(e47,f67,positive).
example(e47,f68,negative).
example(e47,f69,positive).
example(e47,f70,positive).
example(e47,f71,negative).
example(e47,f72,negative).
example(e47,f73,negative).
example(e47,f74,negative).
example(e47,f75,negative).
example(e47,f76,negative).
example(e47,f77,positive).
example(e47,f78,positive).
example(e47,f79,negative).
example(e47,f80,negative).
example(e47,f81,negative).
example(e47,f82,negative).
example(e47,f83,negative).
example(e47,f84,negative).
example(e47,f85,negative).
example(e48,f1,positive).
example(e48,f2,negative).
example(e48,f3,negative).
example(e48,f4,negative).
example(e48,f5,negative).
example(e48,f6,negative).
example(e48,f7,negative).
example(e48,f8,positive).
example(e48,f9,negative).
example(e48,f10,positive).
example(e48,f11,negative).
example(e48,f12,negative).
example(e48,f13,negative).
example(e48,f14,positive).
example(e48,f15,negative).
example(e48,f16,negative).
example(e48,f17,negative).
example(e48,f18,negative).
example(e48,f19,negative).
example(e48,f20,negative).
example(e48,f21,negative).
example(e48,f22,positive).
example(e48,f23,negative).
example(e48,f24,negative).
example(e48,f25,negative).
example(e48,f26,negative).
example(e48,f27,negative).
example(e48,f28,negative).
example(e48,f29,negative).
example(e48,f30,negative).
example(e48,f31,negative).
example(e48,f32,negative).
example(e48,f33,negative).
example(e48,f34,negative).
example(e48,f35,negative).
example(e48,f36,negative).
example(e48,f37,negative).
example(e48,f38,negative).
example(e48,f39,negative).
example(e48,f40,negative).
example(e48,f41,negative).
example(e48,f42,negative).
example(e48,f43,negative).
example(e48,f44,negative).
example(e48,f45,negative).
example(e48,f46,negative).
example(e48,f47,negative).
example(e48,f48,negative).
example(e48,f49,negative).
example(e48,f50,negative).
example(e48,f51,negative).
example(e48,f52,negative).
example(e48,f53,negative).
example(e48,f54,negative).
example(e48,f55,negative).
example(e48,f56,negative).
example(e48,f57,negative).
example(e48,f58,negative).
example(e48,f59,negative).
example(e48,f60,negative).
example(e48,f61,negative).
example(e48,f62,negative).
example(e48,f63,negative).
example(e48,f64,negative).
example(e48,f65,negative).
example(e48,f66,negative).
example(e48,f67,positive).
example(e48,f68,negative).
example(e48,f69,positive).
example(e48,f70,negative).
example(e48,f71,positive).
example(e48,f72,negative).
example(e48,f73,positive).
example(e48,f74,negative).
example(e48,f75,negative).
example(e48,f76,negative).
example(e48,f77,negative).
example(e48,f78,positive).
example(e48,f79,negative).
example(e48,f80,negative).
example(e48,f81,negative).
example(e48,f82,negative).
example(e48,f83,negative).
example(e48,f84,negative).
example(e48,f85,negative).
example(e49,f1,negative).
example(e49,f2,negative).
example(e49,f3,positive).
example(e49,f4,negative).
example(e49,f5,negative).
example(e49,f6,negative).
example(e49,f7,negative).
example(e49,f8,positive).
example(e49,f9,negative).
example(e49,f10,positive).
example(e49,f11,negative).
example(e49,f12,negative).
example(e49,f13,negative).
example(e49,f14,positive).
example(e49,f15,negative).
example(e49,f16,negative).
example(e49,f17,negative).
example(e49,f18,negative).
example(e49,f19,negative).
example(e49,f20,negative).
example(e49,f21,negative).
example(e49,f22,positive).
example(e49,f23,negative).
example(e49,f24,negative).
example(e49,f25,negative).
example(e49,f26,negative).
example(e49,f27,negative).
example(e49,f28,negative).
example(e49,f29,negative).
example(e49,f30,negative).
example(e49,f31,negative).
example(e49,f32,negative).
example(e49,f33,negative).
example(e49,f34,negative).
example(e49,f35,negative).
example(e49,f36,negative).
example(e49,f37,negative).
example(e49,f38,negative).
example(e49,f39,negative).
example(e49,f40,negative).
example(e49,f41,negative).
example(e49,f42,negative).
example(e49,f43,negative).
example(e49,f44,negative).
example(e49,f45,negative).
example(e49,f46,negative).
example(e49,f47,negative).
example(e49,f48,negative).
example(e49,f49,negative).
example(e49,f50,negative).
example(e49,f51,negative).
example(e49,f52,negative).
example(e49,f53,negative).
example(e49,f54,negative).
example(e49,f55,negative).
example(e49,f56,negative).
example(e49,f57,negative).
example(e49,f58,negative).
example(e49,f59,negative).
example(e49,f60,negative).
example(e49,f61,negative).
example(e49,f62,negative).
example(e49,f63,negative).
example(e49,f64,positive).
example(e49,f65,negative).
example(e49,f66,negative).
example(e49,f67,positive).
example(e49,f68,negative).
example(e49,f69,positive).
example(e49,f70,negative).
example(e49,f71,positive).
example(e49,f72,negative).
example(e49,f73,negative).
example(e49,f74,negative).
example(e49,f75,negative).
example(e49,f76,negative).
example(e49,f77,negative).
example(e49,f78,positive).
example(e49,f79,negative).
example(e49,f80,negative).
example(e49,f81,negative).
example(e49,f82,negative).
example(e49,f83,negative).
example(e49,f84,negative).
example(e49,f85,negative).
example(e50,f1,negative).
example(e50,f2,negative).
example(e50,f3,positive).
example(e50,f4,negative).
example(e50,f5,negative).
example(e50,f6,negative).
example(e50,f7,negative).
example(e50,f8,positive).
example(e50,f9,negative).
example(e50,f10,positive).
example(e50,f11,negative).
example(e50,f12,positive).
example(e50,f13,negative).
example(e50,f14,negative).
example(e50,f15,negative).
example(e50,f16,negative).
example(e50,f17,negative).
example(e50,f18,negative).
example(e50,f19,negative).
example(e50,f20,negative).
example(e50,f21,negative).
example(e50,f22,negative).
example(e50,f23,negative).
example(e50,f24,negative).
example(e50,f25,negative).
example(e50,f26,negative).
example(e50,f27,negative).
example(e50,f28,negative).
example(e50,f29,negative).
example(e50,f30,negative).
example(e50,f31,negative).
example(e50,f32,negative).
example(e50,f33,negative).
example(e50,f34,negative).
example(e50,f35,negative).
example(e50,f36,negative).
example(e50,f37,negative).
example(e50,f38,negative).
example(e50,f39,negative).
example(e50,f40,negative).
example(e50,f41,negative).
example(e50,f42,negative).
example(e50,f43,negative).
example(e50,f44,negative).
example(e50,f45,negative).
example(e50,f46,negative).
example(e50,f47,negative).
example(e50,f48,negative).
example(e50,f49,negative).
example(e50,f50,negative).
example(e50,f51,negative).
example(e50,f52,negative).
example(e50,f53,negative).
example(e50,f54,negative).
example(e50,f55,negative).
example(e50,f56,negative).
example(e50,f57,negative).
example(e50,f58,negative).
example(e50,f59,negative).
example(e50,f60,negative).
example(e50,f61,negative).
example(e50,f62,negative).
example(e50,f63,negative).
example(e50,f64,negative).
example(e50,f65,negative).
example(e50,f66,negative).
example(e50,f67,positive).
example(e50,f68,negative).
example(e50,f69,positive).
example(e50,f70,negative).
example(e50,f71,negative).
example(e50,f72,negative).
example(e50,f73,positive).
example(e50,f74,negative).
example(e50,f75,negative).
example(e50,f76,negative).
example(e50,f77,negative).
example(e50,f78,positive).
example(e50,f79,negative).
example(e50,f80,negative).
example(e50,f81,negative).
example(e50,f82,negative).
example(e50,f83,negative).
example(e50,f84,negative).
example(e50,f85,negative).
example(e51,f1,negative).
example(e51,f2,positive).
example(e51,f3,negative).
example(e51,f4,negative).
example(e51,f5,negative).
example(e51,f6,negative).
example(e51,f7,positive).
example(e51,f8,negative).
example(e51,f9,positive).
example(e51,f10,negative).
example(e51,f11,negative).
example(e51,f12,negative).
example(e51,f13,negative).
example(e51,f14,positive).
example(e51,f15,negative).
example(e51,f16,negative).
example(e51,f17,negative).
example(e51,f18,negative).
example(e51,f19,negative).
example(e51,f20,negative).
example(e51,f21,negative).
example(e51,f22,negative).
example(e51,f23,negative).
example(e51,f24,negative).
example(e51,f25,negative).
example(e51,f26,negative).
example(e51,f27,negative).
example(e51,f28,negative).
example(e51,f29,negative).
example(e51,f30,negative).
example(e51,f31,negative).
example(e51,f32,negative).
example(e51,f33,negative).
example(e51,f34,negative).
example(e51,f35,negative).
example(e51,f36,negative).
example(e51,f37,negative).
example(e51,f38,negative).
example(e51,f39,negative).
example(e51,f40,negative).
example(e51,f41,negative).
example(e51,f42,negative).
example(e51,f43,negative).
example(e51,f44,negative).
example(e51,f45,negative).
example(e51,f46,negative).
example(e51,f47,negative).
example(e51,f48,negative).
example(e51,f49,negative).
example(e51,f50,negative).
example(e51,f51,negative).
example(e51,f52,negative).
example(e51,f53,negative).
example(e51,f54,negative).
example(e51,f55,negative).
example(e51,f56,negative).
example(e51,f57,negative).
example(e51,f58,negative).
example(e51,f59,negative).
example(e51,f60,negative).
example(e51,f61,negative).
example(e51,f62,negative).
example(e51,f63,negative).
example(e51,f64,negative).
example(e51,f65,negative).
example(e51,f66,negative).
example(e51,f67,positive).
example(e51,f68,negative).
example(e51,f69,positive).
example(e51,f70,negative).
example(e51,f71,negative).
example(e51,f72,negative).
example(e51,f73,negative).
example(e51,f74,negative).
example(e51,f75,negative).
example(e51,f76,negative).
example(e51,f77,positive).
example(e51,f78,positive).
example(e51,f79,negative).
example(e51,f80,negative).
example(e51,f81,negative).
example(e51,f82,negative).
example(e51,f83,negative).
example(e51,f84,negative).
example(e51,f85,negative).
example(e52,f1,negative).
example(e52,f2,negative).
example(e52,f3,positive).
example(e52,f4,negative).
example(e52,f5,negative).
example(e52,f6,negative).
example(e52,f7,negative).
example(e52,f8,positive).
example(e52,f9,negative).
example(e52,f10,positive).
example(e52,f11,negative).
example(e52,f12,positive).
example(e52,f13,negative).
example(e52,f14,positive).
example(e52,f15,negative).
example(e52,f16,negative).
example(e52,f17,negative).
example(e52,f18,negative).
example(e52,f19,negative).
example(e52,f20,negative).
example(e52,f21,negative).
example(e52,f22,negative).
example(e52,f23,negative).
example(e52,f24,negative).
example(e52,f25,negative).
example(e52,f26,negative).
example(e52,f27,negative).
example(e52,f28,negative).
example(e52,f29,negative).
example(e52,f30,negative).
example(e52,f31,negative).
example(e52,f32,negative).
example(e52,f33,negative).
example(e52,f34,negative).
example(e52,f35,negative).
example(e52,f36,negative).
example(e52,f37,negative).
example(e52,f38,negative).
example(e52,f39,negative).
example(e52,f40,negative).
example(e52,f41,negative).
example(e52,f42,negative).
example(e52,f43,negative).
example(e52,f44,negative).
example(e52,f45,negative).
example(e52,f46,negative).
example(e52,f47,negative).
example(e52,f48,negative).
example(e52,f49,negative).
example(e52,f50,negative).
example(e52,f51,negative).
example(e52,f52,negative).
example(e52,f53,negative).
example(e52,f54,negative).
example(e52,f55,negative).
example(e52,f56,negative).
example(e52,f57,negative).
example(e52,f58,negative).
example(e52,f59,negative).
example(e52,f60,negative).
example(e52,f61,positive).
example(e52,f62,negative).
example(e52,f63,negative).
example(e52,f64,negative).
example(e52,f65,negative).
example(e52,f66,negative).
example(e52,f67,positive).
example(e52,f68,positive).
example(e52,f69,negative).
example(e52,f70,negative).
example(e52,f71,negative).
example(e52,f72,negative).
example(e52,f73,negative).
example(e52,f74,negative).
example(e52,f75,negative).
example(e52,f76,positive).
example(e52,f77,negative).
example(e52,f78,positive).
example(e52,f79,negative).
example(e52,f80,negative).
example(e52,f81,negative).
example(e52,f82,negative).
example(e52,f83,negative).
example(e52,f84,negative).
example(e52,f85,negative).
example(e53,f1,negative).
example(e53,f2,negative).
example(e53,f3,positive).
example(e53,f4,negative).
example(e53,f5,negative).
example(e53,f6,negative).
example(e53,f7,negative).
example(e53,f8,positive).
example(e53,f9,positive).
example(e53,f10,negative).
example(e53,f11,negative).
example(e53,f12,positive).
example(e53,f13,negative).
example(e53,f14,positive).
example(e53,f15,negative).
example(e53,f16,negative).
example(e53,f17,negative).
example(e53,f18,negative).
example(e53,f19,negative).
example(e53,f20,negative).
example(e53,f21,negative).
example(e53,f22,negative).
example(e53,f23,negative).
example(e53,f24,negative).
example(e53,f25,negative).
example(e53,f26,negative).
example(e53,f27,negative).
example(e53,f28,negative).
example(e53,f29,negative).
example(e53,f30,negative).
example(e53,f31,negative).
example(e53,f32,negative).
example(e53,f33,negative).
example(e53,f34,negative).
example(e53,f35,negative).
example(e53,f36,negative).
example(e53,f37,negative).
example(e53,f38,negative).
example(e53,f39,negative).
example(e53,f40,negative).
example(e53,f41,negative).
example(e53,f42,negative).
example(e53,f43,negative).
example(e53,f44,negative).
example(e53,f45,positive).
example(e53,f46,negative).
example(e53,f47,negative).
example(e53,f48,negative).
example(e53,f49,negative).
example(e53,f50,negative).
example(e53,f51,negative).
example(e53,f52,negative).
example(e53,f53,negative).
example(e53,f54,negative).
example(e53,f55,negative).
example(e53,f56,negative).
example(e53,f57,negative).
example(e53,f58,negative).
example(e53,f59,negative).
example(e53,f60,negative).
example(e53,f61,negative).
example(e53,f62,negative).
example(e53,f63,negative).
example(e53,f64,negative).
example(e53,f65,negative).
example(e53,f66,negative).
example(e53,f67,positive).
example(e53,f68,negative).
example(e53,f69,positive).
example(e53,f70,negative).
example(e53,f71,negative).
example(e53,f72,negative).
example(e53,f73,negative).
example(e53,f74,negative).
example(e53,f75,negative).
example(e53,f76,positive).
example(e53,f77,negative).
example(e53,f78,positive).
example(e53,f79,negative).
example(e53,f80,negative).
example(e53,f81,negative).
example(e53,f82,negative).
example(e53,f83,negative).
example(e53,f84,negative).
example(e53,f85,negative).
example(e54,f1,negative).
example(e54,f2,negative).
example(e54,f3,negative).
example(e54,f4,negative).
example(e54,f5,negative).
example(e54,f6,negative).
example(e54,f7,negative).
example(e54,f8,positive).
example(e54,f9,negative).
example(e54,f10,positive).
example(e54,f11,negative).
example(e54,f12,negative).
example(e54,f13,negative).
example(e54,f14,positive).
example(e54,f15,negative).
example(e54,f16,negative).
example(e54,f17,negative).
example(e54,f18,negative).
example(e54,f19,negative).
example(e54,f20,negative).
example(e54,f21,negative).
example(e54,f22,positive).
example(e54,f23,negative).
example(e54,f24,negative).
example(e54,f25,negative).
example(e54,f26,negative).
example(e54,f27,negative).
example(e54,f28,negative).
example(e54,f29,negative).
example(e54,f30,negative).
example(e54,f31,negative).
example(e54,f32,negative).
example(e54,f33,negative).
example(e54,f34,negative).
example(e54,f35,negative).
example(e54,f36,negative).
example(e54,f37,negative).
example(e54,f38,negative).
example(e54,f39,negative).
example(e54,f40,negative).
example(e54,f41,negative).
example(e54,f42,negative).
example(e54,f43,negative).
example(e54,f44,negative).
example(e54,f45,negative).
example(e54,f46,negative).
example(e54,f47,negative).
example(e54,f48,negative).
example(e54,f49,negative).
example(e54,f50,negative).
example(e54,f51,negative).
example(e54,f52,negative).
example(e54,f53,negative).
example(e54,f54,negative).
example(e54,f55,negative).
example(e54,f56,negative).
example(e54,f57,negative).
example(e54,f58,negative).
example(e54,f59,negative).
example(e54,f60,negative).
example(e54,f61,negative).
example(e54,f62,negative).
example(e54,f63,negative).
example(e54,f64,negative).
example(e54,f65,negative).
example(e54,f66,negative).
example(e54,f67,positive).
example(e54,f68,negative).
example(e54,f69,positive).
example(e54,f70,negative).
example(e54,f71,negative).
example(e54,f72,positive).
example(e54,f73,positive).
example(e54,f74,negative).
example(e54,f75,negative).
example(e54,f76,negative).
example(e54,f77,negative).
example(e54,f78,positive).
example(e54,f79,negative).
example(e54,f80,negative).
example(e54,f81,negative).
example(e54,f82,negative).
example(e54,f83,negative).
example(e54,f84,negative).
example(e54,f85,negative).
example(e55,f1,negative).
example(e55,f2,negative).
example(e55,f3,negative).
example(e55,f4,negative).
example(e55,f5,negative).
example(e55,f6,negative).
example(e55,f7,negative).
example(e55,f8,negative).
example(e55,f9,negative).
example(e55,f10,negative).
example(e55,f11,negative).
example(e55,f12,negative).
example(e55,f13,negative).
example(e55,f14,positive).
example(e55,f15,negative).
example(e55,f16,negative).
example(e55,f17,negative).
example(e55,f18,negative).
example(e55,f19,negative).
example(e55,f20,negative).
example(e55,f21,negative).
example(e55,f22,negative).
example(e55,f23,negative).
example(e55,f24,negative).
example(e55,f25,negative).
example(e55,f26,negative).
example(e55,f27,negative).
example(e55,f28,negative).
example(e55,f29,negative).
example(e55,f30,negative).
example(e55,f31,negative).
example(e55,f32,negative).
example(e55,f33,negative).
example(e55,f34,negative).
example(e55,f35,negative).
example(e55,f36,negative).
example(e55,f37,negative).
example(e55,f38,negative).
example(e55,f39,negative).
example(e55,f40,negative).
example(e55,f41,negative).
example(e55,f42,negative).
example(e55,f43,negative).
example(e55,f44,negative).
example(e55,f45,negative).
example(e55,f46,negative).
example(e55,f47,negative).
example(e55,f48,negative).
example(e55,f49,negative).
example(e55,f50,negative).
example(e55,f51,negative).
example(e55,f52,negative).
example(e55,f53,negative).
example(e55,f54,negative).
example(e55,f55,negative).
example(e55,f56,negative).
example(e55,f57,negative).
example(e55,f58,negative).
example(e55,f59,negative).
example(e55,f60,negative).
example(e55,f61,negative).
example(e55,f62,negative).
example(e55,f63,negative).
example(e55,f64,negative).
example(e55,f65,negative).
example(e55,f66,positive).
example(e55,f67,negative).
example(e55,f68,negative).
example(e55,f69,positive).
example(e55,f70,negative).
example(e55,f71,negative).
example(e55,f72,negative).
example(e55,f73,negative).
example(e55,f74,negative).
example(e55,f75,negative).
example(e55,f76,negative).
example(e55,f77,positive).
example(e55,f78,positive).
example(e55,f79,negative).
example(e55,f80,negative).
example(e55,f81,negative).
example(e55,f82,negative).
example(e55,f83,negative).
example(e55,f84,negative).
example(e55,f85,negative).
example(e56,f1,negative).
example(e56,f2,negative).
example(e56,f3,negative).
example(e56,f4,negative).
example(e56,f5,negative).
example(e56,f6,negative).
example(e56,f7,positive).
example(e56,f8,negative).
example(e56,f9,negative).
example(e56,f10,positive).
example(e56,f11,negative).
example(e56,f12,negative).
example(e56,f13,negative).
example(e56,f14,positive).
example(e56,f15,negative).
example(e56,f16,negative).
example(e56,f17,negative).
example(e56,f18,negative).
example(e56,f19,negative).
example(e56,f20,negative).
example(e56,f21,negative).
example(e56,f22,negative).
example(e56,f23,negative).
example(e56,f24,negative).
example(e56,f25,negative).
example(e56,f26,negative).
example(e56,f27,negative).
example(e56,f28,negative).
example(e56,f29,negative).
example(e56,f30,negative).
example(e56,f31,negative).
example(e56,f32,negative).
example(e56,f33,negative).
example(e56,f34,negative).
example(e56,f35,negative).
example(e56,f36,negative).
example(e56,f37,negative).
example(e56,f38,negative).
example(e56,f39,negative).
example(e56,f40,negative).
example(e56,f41,negative).
example(e56,f42,negative).
example(e56,f43,negative).
example(e56,f44,negative).
example(e56,f45,negative).
example(e56,f46,negative).
example(e56,f47,negative).
example(e56,f48,negative).
example(e56,f49,negative).
example(e56,f50,negative).
example(e56,f51,negative).
example(e56,f52,negative).
example(e56,f53,negative).
example(e56,f54,negative).
example(e56,f55,negative).
example(e56,f56,negative).
example(e56,f57,negative).
example(e56,f58,negative).
example(e56,f59,negative).
example(e56,f60,negative).
example(e56,f61,negative).
example(e56,f62,negative).
example(e56,f63,negative).
example(e56,f64,negative).
example(e56,f65,negative).
example(e56,f66,negative).
example(e56,f67,negative).
example(e56,f68,negative).
example(e56,f69,negative).
example(e56,f70,negative).
example(e56,f71,negative).
example(e56,f72,negative).
example(e56,f73,positive).
example(e56,f74,negative).
example(e56,f75,negative).
example(e56,f76,negative).
example(e56,f77,negative).
example(e56,f78,positive).
example(e56,f79,negative).
example(e56,f80,negative).
example(e56,f81,negative).
example(e56,f82,negative).
example(e56,f83,negative).
example(e56,f84,negative).
example(e56,f85,negative).
example(e57,f1,negative).
example(e57,f2,negative).
example(e57,f3,negative).
example(e57,f4,negative).
example(e57,f5,negative).
example(e57,f6,negative).
example(e57,f7,negative).
example(e57,f8,positive).
example(e57,f9,negative).
example(e57,f10,positive).
example(e57,f11,negative).
example(e57,f12,negative).
example(e57,f13,negative).
example(e57,f14,negative).
example(e57,f15,negative).
example(e57,f16,negative).
example(e57,f17,negative).
example(e57,f18,negative).
example(e57,f19,negative).
example(e57,f20,negative).
example(e57,f21,negative).
example(e57,f22,positive).
example(e57,f23,negative).
example(e57,f24,negative).
example(e57,f25,negative).
example(e57,f26,negative).
example(e57,f27,negative).
example(e57,f28,negative).
example(e57,f29,negative).
example(e57,f30,negative).
example(e57,f31,negative).
example(e57,f32,negative).
example(e57,f33,negative).
example(e57,f34,negative).
example(e57,f35,negative).
example(e57,f36,negative).
example(e57,f37,negative).
example(e57,f38,negative).
example(e57,f39,negative).
example(e57,f40,negative).
example(e57,f41,negative).
example(e57,f42,negative).
example(e57,f43,negative).
example(e57,f44,negative).
example(e57,f45,positive).
example(e57,f46,negative).
example(e57,f47,negative).
example(e57,f48,negative).
example(e57,f49,negative).
example(e57,f50,negative).
example(e57,f51,negative).
example(e57,f52,negative).
example(e57,f53,negative).
example(e57,f54,negative).
example(e57,f55,negative).
example(e57,f56,negative).
example(e57,f57,negative).
example(e57,f58,negative).
example(e57,f59,negative).
example(e57,f60,negative).
example(e57,f61,negative).
example(e57,f62,negative).
example(e57,f63,negative).
example(e57,f64,positive).
example(e57,f65,negative).
example(e57,f66,positive).
example(e57,f67,negative).
example(e57,f68,negative).
example(e57,f69,positive).
example(e57,f70,negative).
example(e57,f71,negative).
example(e57,f72,negative).
example(e57,f73,positive).
example(e57,f74,negative).
example(e57,f75,negative).
example(e57,f76,negative).
example(e57,f77,negative).
example(e57,f78,positive).
example(e57,f79,negative).
example(e57,f80,negative).
example(e57,f81,negative).
example(e57,f82,negative).
example(e57,f83,negative).
example(e57,f84,negative).
example(e57,f85,negative).
example(e58,f1,negative).
example(e58,f2,negative).
example(e58,f3,positive).
example(e58,f4,negative).
example(e58,f5,negative).
example(e58,f6,negative).
example(e58,f7,positive).
example(e58,f8,negative).
example(e58,f9,negative).
example(e58,f10,positive).
example(e58,f11,negative).
example(e58,f12,negative).
example(e58,f13,negative).
example(e58,f14,negative).
example(e58,f15,negative).
example(e58,f16,negative).
example(e58,f17,negative).
example(e58,f18,negative).
example(e58,f19,negative).
example(e58,f20,negative).
example(e58,f21,negative).
example(e58,f22,negative).
example(e58,f23,negative).
example(e58,f24,negative).
example(e58,f25,negative).
example(e58,f26,negative).
example(e58,f27,negative).
example(e58,f28,negative).
example(e58,f29,negative).
example(e58,f30,negative).
example(e58,f31,negative).
example(e58,f32,negative).
example(e58,f33,negative).
example(e58,f34,negative).
example(e58,f35,negative).
example(e58,f36,negative).
example(e58,f37,negative).
example(e58,f38,negative).
example(e58,f39,negative).
example(e58,f40,negative).
example(e58,f41,negative).
example(e58,f42,negative).
example(e58,f43,negative).
example(e58,f44,negative).
example(e58,f45,negative).
example(e58,f46,negative).
example(e58,f47,negative).
example(e58,f48,negative).
example(e58,f49,negative).
example(e58,f50,negative).
example(e58,f51,negative).
example(e58,f52,negative).
example(e58,f53,negative).
example(e58,f54,negative).
example(e58,f55,negative).
example(e58,f56,negative).
example(e58,f57,negative).
example(e58,f58,negative).
example(e58,f59,negative).
example(e58,f60,negative).
example(e58,f61,negative).
example(e58,f62,negative).
example(e58,f63,negative).
example(e58,f64,negative).
example(e58,f65,negative).
example(e58,f66,negative).
example(e58,f67,positive).
example(e58,f68,negative).
example(e58,f69,positive).
example(e58,f70,negative).
example(e58,f71,negative).
example(e58,f72,negative).
example(e58,f73,positive).
example(e58,f74,negative).
example(e58,f75,negative).
example(e58,f76,negative).
example(e58,f77,negative).
example(e58,f78,positive).
example(e58,f79,negative).
example(e58,f80,negative).
example(e58,f81,negative).
example(e58,f82,negative).
example(e58,f83,negative).
example(e58,f84,negative).
example(e58,f85,negative).
example(e59,f1,negative).
example(e59,f2,negative).
example(e59,f3,positive).
example(e59,f4,negative).
example(e59,f5,negative).
example(e59,f6,negative).
example(e59,f7,negative).
example(e59,f8,positive).
example(e59,f9,positive).
example(e59,f10,negative).
example(e59,f11,negative).
example(e59,f12,negative).
example(e59,f13,negative).
example(e59,f14,negative).
example(e59,f15,negative).
example(e59,f16,negative).
example(e59,f17,negative).
example(e59,f18,negative).
example(e59,f19,negative).
example(e59,f20,negative).
example(e59,f21,negative).
example(e59,f22,negative).
example(e59,f23,negative).
example(e59,f24,negative).
example(e59,f25,negative).
example(e59,f26,negative).
example(e59,f27,negative).
example(e59,f28,negative).
example(e59,f29,negative).
example(e59,f30,negative).
example(e59,f31,negative).
example(e59,f32,negative).
example(e59,f33,negative).
example(e59,f34,negative).
example(e59,f35,negative).
example(e59,f36,negative).
example(e59,f37,negative).
example(e59,f38,negative).
example(e59,f39,negative).
example(e59,f40,negative).
example(e59,f41,negative).
example(e59,f42,negative).
example(e59,f43,negative).
example(e59,f44,negative).
example(e59,f45,positive).
example(e59,f46,negative).
example(e59,f47,negative).
example(e59,f48,negative).
example(e59,f49,negative).
example(e59,f50,negative).
example(e59,f51,negative).
example(e59,f52,negative).
example(e59,f53,negative).
example(e59,f54,negative).
example(e59,f55,negative).
example(e59,f56,negative).
example(e59,f57,negative).
example(e59,f58,negative).
example(e59,f59,negative).
example(e59,f60,negative).
example(e59,f61,negative).
example(e59,f62,negative).
example(e59,f63,negative).
example(e59,f64,positive).
example(e59,f65,negative).
example(e59,f66,positive).
example(e59,f67,negative).
example(e59,f68,negative).
example(e59,f69,positive).
example(e59,f70,negative).
example(e59,f71,negative).
example(e59,f72,negative).
example(e59,f73,negative).
example(e59,f74,negative).
example(e59,f75,negative).
example(e59,f76,negative).
example(e59,f77,negative).
example(e59,f78,positive).
example(e59,f79,negative).
example(e59,f80,negative).
example(e59,f81,negative).
example(e59,f82,negative).
example(e59,f83,negative).
example(e59,f84,negative).
example(e59,f85,negative).
example(e60,f1,negative).
example(e60,f2,negative).
example(e60,f3,positive).
example(e60,f4,negative).
example(e60,f5,negative).
example(e60,f6,negative).
example(e60,f7,positive).
example(e60,f8,negative).
example(e60,f9,positive).
example(e60,f10,negative).
example(e60,f11,negative).
example(e60,f12,negative).
example(e60,f13,negative).
example(e60,f14,negative).
example(e60,f15,negative).
example(e60,f16,negative).
example(e60,f17,negative).
example(e60,f18,negative).
example(e60,f19,negative).
example(e60,f20,negative).
example(e60,f21,negative).
example(e60,f22,negative).
example(e60,f23,negative).
example(e60,f24,negative).
example(e60,f25,negative).
example(e60,f26,negative).
example(e60,f27,negative).
example(e60,f28,negative).
example(e60,f29,negative).
example(e60,f30,negative).
example(e60,f31,negative).
example(e60,f32,negative).
example(e60,f33,negative).
example(e60,f34,negative).
example(e60,f35,negative).
example(e60,f36,negative).
example(e60,f37,negative).
example(e60,f38,negative).
example(e60,f39,negative).
example(e60,f40,negative).
example(e60,f41,negative).
example(e60,f42,negative).
example(e60,f43,negative).
example(e60,f44,negative).
example(e60,f45,negative).
example(e60,f46,negative).
example(e60,f47,negative).
example(e60,f48,negative).
example(e60,f49,negative).
example(e60,f50,negative).
example(e60,f51,negative).
example(e60,f52,negative).
example(e60,f53,negative).
example(e60,f54,negative).
example(e60,f55,negative).
example(e60,f56,negative).
example(e60,f57,negative).
example(e60,f58,negative).
example(e60,f59,negative).
example(e60,f60,negative).
example(e60,f61,positive).
example(e60,f62,negative).
example(e60,f63,negative).
example(e60,f64,positive).
example(e60,f65,negative).
example(e60,f66,negative).
example(e60,f67,positive).
example(e60,f68,negative).
example(e60,f69,positive).
example(e60,f70,negative).
example(e60,f71,negative).
example(e60,f72,negative).
example(e60,f73,negative).
example(e60,f74,negative).
example(e60,f75,negative).
example(e60,f76,negative).
example(e60,f77,negative).
example(e60,f78,positive).
example(e60,f79,negative).
example(e60,f80,negative).
example(e60,f81,negative).
example(e60,f82,negative).
example(e60,f83,negative).
example(e60,f84,negative).
example(e60,f85,negative).
example(e61,f1,negative).
example(e61,f2,positive).
example(e61,f3,negative).
example(e61,f4,negative).
example(e61,f5,negative).
example(e61,f6,positive).
example(e61,f7,negative).
example(e61,f8,negative).
example(e61,f9,negative).
example(e61,f10,negative).
example(e61,f11,negative).
example(e61,f12,negative).
example(e61,f13,negative).
example(e61,f14,positive).
example(e61,f15,negative).
example(e61,f16,negative).
example(e61,f17,negative).
example(e61,f18,negative).
example(e61,f19,negative).
example(e61,f20,negative).
example(e61,f21,negative).
example(e61,f22,negative).
example(e61,f23,negative).
example(e61,f24,negative).
example(e61,f25,negative).
example(e61,f26,negative).
example(e61,f27,negative).
example(e61,f28,negative).
example(e61,f29,negative).
example(e61,f30,negative).
example(e61,f31,negative).
example(e61,f32,negative).
example(e61,f33,negative).
example(e61,f34,negative).
example(e61,f35,negative).
example(e61,f36,negative).
example(e61,f37,negative).
example(e61,f38,negative).
example(e61,f39,negative).
example(e61,f40,negative).
example(e61,f41,negative).
example(e61,f42,negative).
example(e61,f43,negative).
example(e61,f44,negative).
example(e61,f45,negative).
example(e61,f46,negative).
example(e61,f47,negative).
example(e61,f48,negative).
example(e61,f49,negative).
example(e61,f50,negative).
example(e61,f51,negative).
example(e61,f52,negative).
example(e61,f53,negative).
example(e61,f54,negative).
example(e61,f55,negative).
example(e61,f56,negative).
example(e61,f57,negative).
example(e61,f58,negative).
example(e61,f59,negative).
example(e61,f60,negative).
example(e61,f61,negative).
example(e61,f62,negative).
example(e61,f63,negative).
example(e61,f64,negative).
example(e61,f65,negative).
example(e61,f66,negative).
example(e61,f67,negative).
example(e61,f68,negative).
example(e61,f69,positive).
example(e61,f70,negative).
example(e61,f71,negative).
example(e61,f72,negative).
example(e61,f73,negative).
example(e61,f74,negative).
example(e61,f75,negative).
example(e61,f76,positive).
example(e61,f77,negative).
example(e61,f78,positive).
example(e61,f79,negative).
example(e61,f80,negative).
example(e61,f81,positive).
example(e61,f82,negative).
example(e61,f83,negative).
example(e61,f84,negative).
example(e61,f85,negative).
example(e62,f1,negative).
example(e62,f2,negative).
example(e62,f3,negative).
example(e62,f4,negative).
example(e62,f5,negative).
example(e62,f6,negative).
example(e62,f7,negative).
example(e62,f8,negative).
example(e62,f9,negative).
example(e62,f10,positive).
example(e62,f11,negative).
example(e62,f12,negative).
example(e62,f13,negative).
example(e62,f14,positive).
example(e62,f15,negative).
example(e62,f16,negative).
example(e62,f17,negative).
example(e62,f18,negative).
example(e62,f19,negative).
example(e62,f20,negative).
example(e62,f21,negative).
example(e62,f22,negative).
example(e62,f23,negative).
example(e62,f24,negative).
example(e62,f25,negative).
example(e62,f26,negative).
example(e62,f27,negative).
example(e62,f28,negative).
example(e62,f29,negative).
example(e62,f30,negative).
example(e62,f31,negative).
example(e62,f32,negative).
example(e62,f33,negative).
example(e62,f34,negative).
example(e62,f35,negative).
example(e62,f36,negative).
example(e62,f37,negative).
example(e62,f38,negative).
example(e62,f39,negative).
example(e62,f40,negative).
example(e62,f41,negative).
example(e62,f42,negative).
example(e62,f43,negative).
example(e62,f44,negative).
example(e62,f45,negative).
example(e62,f46,negative).
example(e62,f47,negative).
example(e62,f48,negative).
example(e62,f49,negative).
example(e62,f50,negative).
example(e62,f51,negative).
example(e62,f52,negative).
example(e62,f53,negative).
example(e62,f54,negative).
example(e62,f55,negative).
example(e62,f56,negative).
example(e62,f57,negative).
example(e62,f58,negative).
example(e62,f59,negative).
example(e62,f60,negative).
example(e62,f61,negative).
example(e62,f62,negative).
example(e62,f63,negative).
example(e62,f64,negative).
example(e62,f65,negative).
example(e62,f66,negative).
example(e62,f67,negative).
example(e62,f68,negative).
example(e62,f69,negative).
example(e62,f70,negative).
example(e62,f71,negative).
example(e62,f72,negative).
example(e62,f73,positive).
example(e62,f74,negative).
example(e62,f75,negative).
example(e62,f76,negative).
example(e62,f77,negative).
example(e62,f78,positive).
example(e62,f79,negative).
example(e62,f80,negative).
example(e62,f81,negative).
example(e62,f82,negative).
example(e62,f83,negative).
example(e62,f84,negative).
example(e62,f85,negative).
example(e63,f1,positive).
example(e63,f2,negative).
example(e63,f3,negative).
example(e63,f4,negative).
example(e63,f5,negative).
example(e63,f6,negative).
example(e63,f7,negative).
example(e63,f8,negative).
example(e63,f9,negative).
example(e63,f10,negative).
example(e63,f11,negative).
example(e63,f12,negative).
example(e63,f13,negative).
example(e63,f14,positive).
example(e63,f15,negative).
example(e63,f16,negative).
example(e63,f17,negative).
example(e63,f18,negative).
example(e63,f19,negative).
example(e63,f20,negative).
example(e63,f21,negative).
example(e63,f22,positive).
example(e63,f23,negative).
example(e63,f24,negative).
example(e63,f25,negative).
example(e63,f26,negative).
example(e63,f27,negative).
example(e63,f28,negative).
example(e63,f29,negative).
example(e63,f30,negative).
example(e63,f31,negative).
example(e63,f32,negative).
example(e63,f33,negative).
example(e63,f34,negative).
example(e63,f35,negative).
example(e63,f36,negative).
example(e63,f37,negative).
example(e63,f38,negative).
example(e63,f39,negative).
example(e63,f40,negative).
example(e63,f41,negative).
example(e63,f42,negative).
example(e63,f43,negative).
example(e63,f44,negative).
example(e63,f45,negative).
example(e63,f46,negative).
example(e63,f47,negative).
example(e63,f48,negative).
example(e63,f49,negative).
example(e63,f50,negative).
example(e63,f51,negative).
example(e63,f52,negative).
example(e63,f53,negative).
example(e63,f54,negative).
example(e63,f55,negative).
example(e63,f56,negative).
example(e63,f57,negative).
example(e63,f58,negative).
example(e63,f59,negative).
example(e63,f60,negative).
example(e63,f61,negative).
example(e63,f62,negative).
example(e63,f63,negative).
example(e63,f64,positive).
example(e63,f65,negative).
example(e63,f66,negative).
example(e63,f67,negative).
example(e63,f68,negative).
example(e63,f69,negative).
example(e63,f70,negative).
example(e63,f71,negative).
example(e63,f72,negative).
example(e63,f73,negative).
example(e63,f74,negative).
example(e63,f75,negative).
example(e63,f76,positive).
example(e63,f77,negative).
example(e63,f78,positive).
example(e63,f79,negative).
example(e63,f80,negative).
example(e63,f81,negative).
example(e63,f82,negative).
example(e63,f83,negative).
example(e63,f84,negative).
example(e63,f85,negative).
example(e64,f1,negative).
example(e64,f2,negative).
example(e64,f3,positive).
example(e64,f4,negative).
example(e64,f5,negative).
example(e64,f6,negative).
example(e64,f7,negative).
example(e64,f8,negative).
example(e64,f9,positive).
example(e64,f10,negative).
example(e64,f11,negative).
example(e64,f12,positive).
example(e64,f13,negative).
example(e64,f14,negative).
example(e64,f15,negative).
example(e64,f16,negative).
example(e64,f17,negative).
example(e64,f18,negative).
example(e64,f19,negative).
example(e64,f20,negative).
example(e64,f21,negative).
example(e64,f22,negative).
example(e64,f23,negative).
example(e64,f24,negative).
example(e64,f25,negative).
example(e64,f26,negative).
example(e64,f27,negative).
example(e64,f28,negative).
example(e64,f29,negative).
example(e64,f30,negative).
example(e64,f31,negative).
example(e64,f32,negative).
example(e64,f33,negative).
example(e64,f34,negative).
example(e64,f35,negative).
example(e64,f36,negative).
example(e64,f37,negative).
example(e64,f38,negative).
example(e64,f39,negative).
example(e64,f40,negative).
example(e64,f41,negative).
example(e64,f42,negative).
example(e64,f43,negative).
example(e64,f44,negative).
example(e64,f45,negative).
example(e64,f46,negative).
example(e64,f47,negative).
example(e64,f48,negative).
example(e64,f49,negative).
example(e64,f50,negative).
example(e64,f51,negative).
example(e64,f52,negative).
example(e64,f53,negative).
example(e64,f54,negative).
example(e64,f55,negative).
example(e64,f56,negative).
example(e64,f57,negative).
example(e64,f58,negative).
example(e64,f59,negative).
example(e64,f60,negative).
example(e64,f61,negative).
example(e64,f62,negative).
example(e64,f63,negative).
example(e64,f64,negative).
example(e64,f65,negative).
example(e64,f66,negative).
example(e64,f67,negative).
example(e64,f68,negative).
example(e64,f69,negative).
example(e64,f70,negative).
example(e64,f71,negative).
example(e64,f72,negative).
example(e64,f73,positive).
example(e64,f74,negative).
example(e64,f75,negative).
example(e64,f76,negative).
example(e64,f77,negative).
example(e64,f78,positive).
example(e64,f79,negative).
example(e64,f80,negative).
example(e64,f81,negative).
example(e64,f82,negative).
example(e64,f83,negative).
example(e64,f84,negative).
example(e64,f85,negative).
example(e65,f1,negative).
example(e65,f2,negative).
example(e65,f3,negative).
example(e65,f4,negative).
example(e65,f5,positive).
example(e65,f6,positive).
example(e65,f7,negative).
example(e65,f8,negative).
example(e65,f9,negative).
example(e65,f10,negative).
example(e65,f11,negative).
example(e65,f12,negative).
example(e65,f13,negative).
example(e65,f14,negative).
example(e65,f15,negative).
example(e65,f16,negative).
example(e65,f17,negative).
example(e65,f18,negative).
example(e65,f19,negative).
example(e65,f20,negative).
example(e65,f21,negative).
example(e65,f22,negative).
example(e65,f23,negative).
example(e65,f24,negative).
example(e65,f25,negative).
example(e65,f26,negative).
example(e65,f27,negative).
example(e65,f28,negative).
example(e65,f29,negative).
example(e65,f30,negative).
example(e65,f31,negative).
example(e65,f32,negative).
example(e65,f33,negative).
example(e65,f34,negative).
example(e65,f35,negative).
example(e65,f36,negative).
example(e65,f37,negative).
example(e65,f38,negative).
example(e65,f39,negative).
example(e65,f40,negative).
example(e65,f41,negative).
example(e65,f42,negative).
example(e65,f43,negative).
example(e65,f44,negative).
example(e65,f45,negative).
example(e65,f46,negative).
example(e65,f47,negative).
example(e65,f48,negative).
example(e65,f49,negative).
example(e65,f50,negative).
example(e65,f51,negative).
example(e65,f52,negative).
example(e65,f53,negative).
example(e65,f54,negative).
example(e65,f55,negative).
example(e65,f56,negative).
example(e65,f57,negative).
example(e65,f58,negative).
example(e65,f59,negative).
example(e65,f60,negative).
example(e65,f61,negative).
example(e65,f62,negative).
example(e65,f63,negative).
example(e65,f64,negative).
example(e65,f65,negative).
example(e65,f66,negative).
example(e65,f67,negative).
example(e65,f68,positive).
example(e65,f69,negative).
example(e65,f70,negative).
example(e65,f71,negative).
example(e65,f72,negative).
example(e65,f73,negative).
example(e65,f74,negative).
example(e65,f75,negative).
example(e65,f76,negative).
example(e65,f77,positive).
example(e65,f78,positive).
example(e65,f79,positive).
example(e65,f80,negative).
example(e65,f81,negative).
example(e65,f82,negative).
example(e65,f83,negative).
example(e65,f84,negative).
example(e65,f85,negative).
example(e66,f1,positive).
example(e66,f2,negative).
example(e66,f3,positive).
example(e66,f4,negative).
example(e66,f5,negative).
example(e66,f6,negative).
example(e66,f7,negative).
example(e66,f8,positive).
example(e66,f9,negative).
example(e66,f10,positive).
example(e66,f11,negative).
example(e66,f12,negative).
example(e66,f13,negative).
example(e66,f14,negative).
example(e66,f15,negative).
example(e66,f16,negative).
example(e66,f17,negative).
example(e66,f18,negative).
example(e66,f19,negative).
example(e66,f20,negative).
example(e66,f21,negative).
example(e66,f22,negative).
example(e66,f23,negative).
example(e66,f24,negative).
example(e66,f25,negative).
example(e66,f26,negative).
example(e66,f27,negative).
example(e66,f28,negative).
example(e66,f29,negative).
example(e66,f30,negative).
example(e66,f31,negative).
example(e66,f32,negative).
example(e66,f33,negative).
example(e66,f34,negative).
example(e66,f35,negative).
example(e66,f36,negative).
example(e66,f37,negative).
example(e66,f38,negative).
example(e66,f39,negative).
example(e66,f40,negative).
example(e66,f41,negative).
example(e66,f42,negative).
example(e66,f43,negative).
example(e66,f44,negative).
example(e66,f45,positive).
example(e66,f46,negative).
example(e66,f47,negative).
example(e66,f48,negative).
example(e66,f49,negative).
example(e66,f50,negative).
example(e66,f51,negative).
example(e66,f52,negative).
example(e66,f53,negative).
example(e66,f54,negative).
example(e66,f55,negative).
example(e66,f56,negative).
example(e66,f57,negative).
example(e66,f58,negative).
example(e66,f59,negative).
example(e66,f60,negative).
example(e66,f61,negative).
example(e66,f62,negative).
example(e66,f63,negative).
example(e66,f64,negative).
example(e66,f65,negative).
example(e66,f66,negative).
example(e66,f67,positive).
example(e66,f68,positive).
example(e66,f69,negative).
example(e66,f70,negative).
example(e66,f71,negative).
example(e66,f72,negative).
example(e66,f73,negative).
example(e66,f74,negative).
example(e66,f75,negative).
example(e66,f76,negative).
example(e66,f77,negative).
example(e66,f78,positive).
example(e66,f79,negative).
example(e66,f80,negative).
example(e66,f81,negative).
example(e66,f82,negative).
example(e66,f83,negative).
example(e66,f84,negative).
example(e66,f85,negative).
example(e67,f1,positive).
example(e67,f2,negative).
example(e67,f3,positive).
example(e67,f4,negative).
example(e67,f5,negative).
example(e67,f6,negative).
example(e67,f7,positive).
example(e67,f8,negative).
example(e67,f9,negative).
example(e67,f10,positive).
example(e67,f11,negative).
example(e67,f12,negative).
example(e67,f13,negative).
example(e67,f14,negative).
example(e67,f15,negative).
example(e67,f16,negative).
example(e67,f17,negative).
example(e67,f18,negative).
example(e67,f19,negative).
example(e67,f20,negative).
example(e67,f21,negative).
example(e67,f22,negative).
example(e67,f23,negative).
example(e67,f24,negative).
example(e67,f25,negative).
example(e67,f26,negative).
example(e67,f27,negative).
example(e67,f28,negative).
example(e67,f29,negative).
example(e67,f30,negative).
example(e67,f31,negative).
example(e67,f32,negative).
example(e67,f33,negative).
example(e67,f34,negative).
example(e67,f35,negative).
example(e67,f36,negative).
example(e67,f37,negative).
example(e67,f38,negative).
example(e67,f39,negative).
example(e67,f40,negative).
example(e67,f41,negative).
example(e67,f42,negative).
example(e67,f43,negative).
example(e67,f44,negative).
example(e67,f45,positive).
example(e67,f46,negative).
example(e67,f47,negative).
example(e67,f48,negative).
example(e67,f49,negative).
example(e67,f50,negative).
example(e67,f51,negative).
example(e67,f52,negative).
example(e67,f53,negative).
example(e67,f54,negative).
example(e67,f55,negative).
example(e67,f56,negative).
example(e67,f57,negative).
example(e67,f58,negative).
example(e67,f59,negative).
example(e67,f60,negative).
example(e67,f61,negative).
example(e67,f62,negative).
example(e67,f63,negative).
example(e67,f64,negative).
example(e67,f65,negative).
example(e67,f66,negative).
example(e67,f67,positive).
example(e67,f68,negative).
example(e67,f69,positive).
example(e67,f70,negative).
example(e67,f71,negative).
example(e67,f72,negative).
example(e67,f73,negative).
example(e67,f74,negative).
example(e67,f75,negative).
example(e67,f76,positive).
example(e67,f77,negative).
example(e67,f78,positive).
example(e67,f79,negative).
example(e67,f80,negative).
example(e67,f81,negative).
example(e67,f82,negative).
example(e67,f83,negative).
example(e67,f84,negative).
example(e67,f85,negative).
example(e68,f1,negative).
example(e68,f2,negative).
example(e68,f3,positive).
example(e68,f4,negative).
example(e68,f5,negative).
example(e68,f6,negative).
example(e68,f7,negative).
example(e68,f8,positive).
example(e68,f9,positive).
example(e68,f10,negative).
example(e68,f11,negative).
example(e68,f12,positive).
example(e68,f13,negative).
example(e68,f14,negative).
example(e68,f15,negative).
example(e68,f16,negative).
example(e68,f17,negative).
example(e68,f18,negative).
example(e68,f19,negative).
example(e68,f20,negative).
example(e68,f21,negative).
example(e68,f22,negative).
example(e68,f23,negative).
example(e68,f24,negative).
example(e68,f25,negative).
example(e68,f26,negative).
example(e68,f27,negative).
example(e68,f28,negative).
example(e68,f29,negative).
example(e68,f30,negative).
example(e68,f31,negative).
example(e68,f32,negative).
example(e68,f33,negative).
example(e68,f34,negative).
example(e68,f35,negative).
example(e68,f36,negative).
example(e68,f37,negative).
example(e68,f38,negative).
example(e68,f39,negative).
example(e68,f40,negative).
example(e68,f41,negative).
example(e68,f42,negative).
example(e68,f43,negative).
example(e68,f44,negative).
example(e68,f45,negative).
example(e68,f46,negative).
example(e68,f47,negative).
example(e68,f48,negative).
example(e68,f49,negative).
example(e68,f50,negative).
example(e68,f51,negative).
example(e68,f52,negative).
example(e68,f53,negative).
example(e68,f54,negative).
example(e68,f55,negative).
example(e68,f56,negative).
example(e68,f57,negative).
example(e68,f58,negative).
example(e68,f59,negative).
example(e68,f60,negative).
example(e68,f61,negative).
example(e68,f62,negative).
example(e68,f63,negative).
example(e68,f64,negative).
example(e68,f65,negative).
example(e68,f66,negative).
example(e68,f67,negative).
example(e68,f68,negative).
example(e68,f69,negative).
example(e68,f70,negative).
example(e68,f71,negative).
example(e68,f72,negative).
example(e68,f73,positive).
example(e68,f74,negative).
example(e68,f75,negative).
example(e68,f76,negative).
example(e68,f77,negative).
example(e68,f78,positive).
example(e68,f79,negative).
example(e68,f80,negative).
example(e68,f81,negative).
example(e68,f82,negative).
example(e68,f83,negative).
example(e68,f84,negative).
example(e68,f85,negative).
example(e69,f1,positive).
example(e69,f2,negative).
example(e69,f3,negative).
example(e69,f4,negative).
example(e69,f5,negative).
example(e69,f6,negative).
example(e69,f7,negative).
example(e69,f8,positive).
example(e69,f9,negative).
example(e69,f10,positive).
example(e69,f11,negative).
example(e69,f12,negative).
example(e69,f13,negative).
example(e69,f14,negative).
example(e69,f15,negative).
example(e69,f16,negative).
example(e69,f17,negative).
example(e69,f18,negative).
example(e69,f19,negative).
example(e69,f20,negative).
example(e69,f21,negative).
example(e69,f22,negative).
example(e69,f23,negative).
example(e69,f24,negative).
example(e69,f25,negative).
example(e69,f26,negative).
example(e69,f27,negative).
example(e69,f28,negative).
example(e69,f29,negative).
example(e69,f30,negative).
example(e69,f31,negative).
example(e69,f32,negative).
example(e69,f33,negative).
example(e69,f34,negative).
example(e69,f35,negative).
example(e69,f36,negative).
example(e69,f37,negative).
example(e69,f38,negative).
example(e69,f39,negative).
example(e69,f40,negative).
example(e69,f41,negative).
example(e69,f42,negative).
example(e69,f43,negative).
example(e69,f44,negative).
example(e69,f45,negative).
example(e69,f46,negative).
example(e69,f47,negative).
example(e69,f48,negative).
example(e69,f49,negative).
example(e69,f50,negative).
example(e69,f51,negative).
example(e69,f52,negative).
example(e69,f53,negative).
example(e69,f54,negative).
example(e69,f55,negative).
example(e69,f56,negative).
example(e69,f57,negative).
example(e69,f58,negative).
example(e69,f59,negative).
example(e69,f60,negative).
example(e69,f61,negative).
example(e69,f62,negative).
example(e69,f63,negative).
example(e69,f64,negative).
example(e69,f65,negative).
example(e69,f66,negative).
example(e69,f67,positive).
example(e69,f68,negative).
example(e69,f69,positive).
example(e69,f70,negative).
example(e69,f71,negative).
example(e69,f72,negative).
example(e69,f73,positive).
example(e69,f74,negative).
example(e69,f75,negative).
example(e69,f76,negative).
example(e69,f77,negative).
example(e69,f78,positive).
example(e69,f79,negative).
example(e69,f80,negative).
example(e69,f81,negative).
example(e69,f82,negative).
example(e69,f83,negative).
example(e69,f84,negative).
example(e69,f85,negative).
example(e70,f1,negative).
example(e70,f2,negative).
example(e70,f3,negative).
example(e70,f4,negative).
example(e70,f5,negative).
example(e70,f6,negative).
example(e70,f7,positive).
example(e70,f8,negative).
example(e70,f9,negative).
example(e70,f10,positive).
example(e70,f11,negative).
example(e70,f12,negative).
example(e70,f13,negative).
example(e70,f14,negative).
example(e70,f15,negative).
example(e70,f16,negative).
example(e70,f17,negative).
example(e70,f18,negative).
example(e70,f19,negative).
example(e70,f20,negative).
example(e70,f21,negative).
example(e70,f22,negative).
example(e70,f23,negative).
example(e70,f24,negative).
example(e70,f25,negative).
example(e70,f26,negative).
example(e70,f27,negative).
example(e70,f28,negative).
example(e70,f29,negative).
example(e70,f30,negative).
example(e70,f31,negative).
example(e70,f32,negative).
example(e70,f33,negative).
example(e70,f34,negative).
example(e70,f35,negative).
example(e70,f36,negative).
example(e70,f37,negative).
example(e70,f38,negative).
example(e70,f39,negative).
example(e70,f40,negative).
example(e70,f41,negative).
example(e70,f42,negative).
example(e70,f43,negative).
example(e70,f44,negative).
example(e70,f45,positive).
example(e70,f46,negative).
example(e70,f47,negative).
example(e70,f48,negative).
example(e70,f49,negative).
example(e70,f50,negative).
example(e70,f51,negative).
example(e70,f52,negative).
example(e70,f53,negative).
example(e70,f54,negative).
example(e70,f55,negative).
example(e70,f56,negative).
example(e70,f57,negative).
example(e70,f58,negative).
example(e70,f59,negative).
example(e70,f60,negative).
example(e70,f61,negative).
example(e70,f62,negative).
example(e70,f63,negative).
example(e70,f64,positive).
example(e70,f65,negative).
example(e70,f66,positive).
example(e70,f67,negative).
example(e70,f68,positive).
example(e70,f69,negative).
example(e70,f70,negative).
example(e70,f71,negative).
example(e70,f72,negative).
example(e70,f73,positive).
example(e70,f74,negative).
example(e70,f75,negative).
example(e70,f76,negative).
example(e70,f77,negative).
example(e70,f78,positive).
example(e70,f79,negative).
example(e70,f80,negative).
example(e70,f81,negative).
example(e70,f82,negative).
example(e70,f83,negative).
example(e70,f84,negative).
example(e70,f85,negative).
example(e71,f1,negative).
example(e71,f2,negative).
example(e71,f3,negative).
example(e71,f4,negative).
example(e71,f5,negative).
example(e71,f6,negative).
example(e71,f7,positive).
example(e71,f8,negative).
example(e71,f9,positive).
example(e71,f10,negative).
example(e71,f11,negative).
example(e71,f12,negative).
example(e71,f13,negative).
example(e71,f14,negative).
example(e71,f15,negative).
example(e71,f16,negative).
example(e71,f17,negative).
example(e71,f18,negative).
example(e71,f19,negative).
example(e71,f20,negative).
example(e71,f21,negative).
example(e71,f22,negative).
example(e71,f23,negative).
example(e71,f24,negative).
example(e71,f25,negative).
example(e71,f26,negative).
example(e71,f27,negative).
example(e71,f28,negative).
example(e71,f29,negative).
example(e71,f30,negative).
example(e71,f31,negative).
example(e71,f32,negative).
example(e71,f33,negative).
example(e71,f34,negative).
example(e71,f35,negative).
example(e71,f36,negative).
example(e71,f37,negative).
example(e71,f38,negative).
example(e71,f39,negative).
example(e71,f40,negative).
example(e71,f41,negative).
example(e71,f42,negative).
example(e71,f43,negative).
example(e71,f44,negative).
example(e71,f45,negative).
example(e71,f46,positive).
example(e71,f47,negative).
example(e71,f48,negative).
example(e71,f49,negative).
example(e71,f50,negative).
example(e71,f51,negative).
example(e71,f52,negative).
example(e71,f53,negative).
example(e71,f54,negative).
example(e71,f55,negative).
example(e71,f56,negative).
example(e71,f57,negative).
example(e71,f58,negative).
example(e71,f59,negative).
example(e71,f60,negative).
example(e71,f61,negative).
example(e71,f62,negative).
example(e71,f63,negative).
example(e71,f64,positive).
example(e71,f65,negative).
example(e71,f66,positive).
example(e71,f67,negative).
example(e71,f68,negative).
example(e71,f69,positive).
example(e71,f70,negative).
example(e71,f71,negative).
example(e71,f72,negative).
example(e71,f73,positive).
example(e71,f74,negative).
example(e71,f75,negative).
example(e71,f76,negative).
example(e71,f77,negative).
example(e71,f78,positive).
example(e71,f79,negative).
example(e71,f80,negative).
example(e71,f81,negative).
example(e71,f82,negative).
example(e71,f83,negative).
example(e71,f84,negative).
example(e71,f85,negative).
example(e72,f1,negative).
example(e72,f2,positive).
example(e72,f3,negative).
example(e72,f4,negative).
example(e72,f5,negative).
example(e72,f6,negative).
example(e72,f7,negative).
example(e72,f8,negative).
example(e72,f9,negative).
example(e72,f10,negative).
example(e72,f11,positive).
example(e72,f12,negative).
example(e72,f13,negative).
example(e72,f14,positive).
example(e72,f15,negative).
example(e72,f16,positive).
example(e72,f17,negative).
example(e72,f18,negative).
example(e72,f19,positive).
example(e72,f20,negative).
example(e72,f21,negative).
example(e72,f22,negative).
example(e72,f23,negative).
example(e72,f24,negative).
example(e72,f25,negative).
example(e72,f26,negative).
example(e72,f27,negative).
example(e72,f28,negative).
example(e72,f29,negative).
example(e72,f30,negative).
example(e72,f31,negative).
example(e72,f32,negative).
example(e72,f33,negative).
example(e72,f34,negative).
example(e72,f35,negative).
example(e72,f36,negative).
example(e72,f37,negative).
example(e72,f38,negative).
example(e72,f39,negative).
example(e72,f40,negative).
example(e72,f41,negative).
example(e72,f42,negative).
example(e72,f43,negative).
example(e72,f44,negative).
example(e72,f45,negative).
example(e72,f46,negative).
example(e72,f47,negative).
example(e72,f48,negative).
example(e72,f49,negative).
example(e72,f50,negative).
example(e72,f51,negative).
example(e72,f52,negative).
example(e72,f53,negative).
example(e72,f54,negative).
example(e72,f55,negative).
example(e72,f56,negative).
example(e72,f57,negative).
example(e72,f58,negative).
example(e72,f59,negative).
example(e72,f60,negative).
example(e72,f61,negative).
example(e72,f62,negative).
example(e72,f63,negative).
example(e72,f64,negative).
example(e72,f65,negative).
example(e72,f66,negative).
example(e72,f67,positive).
example(e72,f68,positive).
example(e72,f69,negative).
example(e72,f70,negative).
example(e72,f71,negative).
example(e72,f72,negative).
example(e72,f73,negative).
example(e72,f74,negative).
example(e72,f75,negative).
example(e72,f76,negative).
example(e72,f77,positive).
example(e72,f78,positive).
example(e72,f79,negative).
example(e72,f80,negative).
example(e72,f81,negative).
example(e72,f82,negative).
example(e72,f83,negative).
example(e72,f84,positive).
example(e72,f85,negative).
example(e73,f1,negative).
example(e73,f2,negative).
example(e73,f3,negative).
example(e73,f4,negative).
example(e73,f5,negative).
example(e73,f6,positive).
example(e73,f7,negative).
example(e73,f8,negative).
example(e73,f9,negative).
example(e73,f10,negative).
example(e73,f11,negative).
example(e73,f12,positive).
example(e73,f13,negative).
example(e73,f14,negative).
example(e73,f15,negative).
example(e73,f16,negative).
example(e73,f17,negative).
example(e73,f18,negative).
example(e73,f19,negative).
example(e73,f20,negative).
example(e73,f21,negative).
example(e73,f22,negative).
example(e73,f23,negative).
example(e73,f24,negative).
example(e73,f25,negative).
example(e73,f26,negative).
example(e73,f27,negative).
example(e73,f28,negative).
example(e73,f29,negative).
example(e73,f30,negative).
example(e73,f31,negative).
example(e73,f32,negative).
example(e73,f33,negative).
example(e73,f34,negative).
example(e73,f35,negative).
example(e73,f36,negative).
example(e73,f37,negative).
example(e73,f38,negative).
example(e73,f39,negative).
example(e73,f40,negative).
example(e73,f41,negative).
example(e73,f42,negative).
example(e73,f43,negative).
example(e73,f44,negative).
example(e73,f45,negative).
example(e73,f46,negative).
example(e73,f47,negative).
example(e73,f48,negative).
example(e73,f49,negative).
example(e73,f50,negative).
example(e73,f51,negative).
example(e73,f52,negative).
example(e73,f53,negative).
example(e73,f54,negative).
example(e73,f55,negative).
example(e73,f56,negative).
example(e73,f57,negative).
example(e73,f58,negative).
example(e73,f59,negative).
example(e73,f60,negative).
example(e73,f61,negative).
example(e73,f62,negative).
example(e73,f63,negative).
example(e73,f64,negative).
example(e73,f65,negative).
example(e73,f66,negative).
example(e73,f67,negative).
example(e73,f68,negative).
example(e73,f69,negative).
example(e73,f70,negative).
example(e73,f71,negative).
example(e73,f72,negative).
example(e73,f73,negative).
example(e73,f74,negative).
example(e73,f75,negative).
example(e73,f76,negative).
example(e73,f77,negative).
example(e73,f78,positive).
example(e73,f79,negative).
example(e73,f80,positive).
example(e73,f81,negative).
example(e73,f82,negative).
example(e73,f83,negative).
example(e73,f84,negative).
example(e73,f85,negative).
example(e74,f1,negative).
example(e74,f2,negative).
example(e74,f3,negative).
example(e74,f4,negative).
example(e74,f5,negative).
example(e74,f6,negative).
example(e74,f7,negative).
example(e74,f8,negative).
example(e74,f9,negative).
example(e74,f10,negative).
example(e74,f11,negative).
example(e74,f12,negative).
example(e74,f13,negative).
example(e74,f14,positive).
example(e74,f15,negative).
example(e74,f16,negative).
example(e74,f17,negative).
example(e74,f18,negative).
example(e74,f19,negative).
example(e74,f20,negative).
example(e74,f21,negative).
example(e74,f22,negative).
example(e74,f23,negative).
example(e74,f24,negative).
example(e74,f25,negative).
example(e74,f26,negative).
example(e74,f27,negative).
example(e74,f28,negative).
example(e74,f29,negative).
example(e74,f30,negative).
example(e74,f31,negative).
example(e74,f32,negative).
example(e74,f33,negative).
example(e74,f34,negative).
example(e74,f35,negative).
example(e74,f36,negative).
example(e74,f37,negative).
example(e74,f38,negative).
example(e74,f39,negative).
example(e74,f40,negative).
example(e74,f41,negative).
example(e74,f42,negative).
example(e74,f43,negative).
example(e74,f44,negative).
example(e74,f45,negative).
example(e74,f46,negative).
example(e74,f47,negative).
example(e74,f48,negative).
example(e74,f49,negative).
example(e74,f50,negative).
example(e74,f51,negative).
example(e74,f52,negative).
example(e74,f53,negative).
example(e74,f54,negative).
example(e74,f55,negative).
example(e74,f56,negative).
example(e74,f57,negative).
example(e74,f58,negative).
example(e74,f59,negative).
example(e74,f60,negative).
example(e74,f61,negative).
example(e74,f62,negative).
example(e74,f63,negative).
example(e74,f64,negative).
example(e74,f65,negative).
example(e74,f66,negative).
example(e74,f67,negative).
example(e74,f68,positive).
example(e74,f69,negative).
example(e74,f70,negative).
example(e74,f71,negative).
example(e74,f72,negative).
example(e74,f73,positive).
example(e74,f74,negative).
example(e74,f75,negative).
example(e74,f76,negative).
example(e74,f77,negative).
example(e74,f78,positive).
example(e74,f79,negative).
example(e74,f80,negative).
example(e74,f81,negative).
example(e74,f82,negative).
example(e74,f83,negative).
example(e74,f84,negative).
example(e74,f85,negative).
example(e75,f1,negative).
example(e75,f2,negative).
example(e75,f3,positive).
example(e75,f4,negative).
example(e75,f5,negative).
example(e75,f6,negative).
example(e75,f7,negative).
example(e75,f8,negative).
example(e75,f9,positive).
example(e75,f10,negative).
example(e75,f11,negative).
example(e75,f12,positive).
example(e75,f13,negative).
example(e75,f14,negative).
example(e75,f15,negative).
example(e75,f16,negative).
example(e75,f17,negative).
example(e75,f18,negative).
example(e75,f19,negative).
example(e75,f20,negative).
example(e75,f21,negative).
example(e75,f22,negative).
example(e75,f23,negative).
example(e75,f24,negative).
example(e75,f25,negative).
example(e75,f26,negative).
example(e75,f27,negative).
example(e75,f28,negative).
example(e75,f29,negative).
example(e75,f30,negative).
example(e75,f31,negative).
example(e75,f32,negative).
example(e75,f33,negative).
example(e75,f34,negative).
example(e75,f35,negative).
example(e75,f36,negative).
example(e75,f37,negative).
example(e75,f38,negative).
example(e75,f39,negative).
example(e75,f40,negative).
example(e75,f41,negative).
example(e75,f42,negative).
example(e75,f43,negative).
example(e75,f44,negative).
example(e75,f45,negative).
example(e75,f46,negative).
example(e75,f47,negative).
example(e75,f48,negative).
example(e75,f49,negative).
example(e75,f50,negative).
example(e75,f51,negative).
example(e75,f52,negative).
example(e75,f53,negative).
example(e75,f54,negative).
example(e75,f55,negative).
example(e75,f56,negative).
example(e75,f57,negative).
example(e75,f58,negative).
example(e75,f59,negative).
example(e75,f60,negative).
example(e75,f61,negative).
example(e75,f62,negative).
example(e75,f63,negative).
example(e75,f64,negative).
example(e75,f65,negative).
example(e75,f66,negative).
example(e75,f67,negative).
example(e75,f68,negative).
example(e75,f69,negative).
example(e75,f70,negative).
example(e75,f71,negative).
example(e75,f72,negative).
example(e75,f73,positive).
example(e75,f74,negative).
example(e75,f75,negative).
example(e75,f76,negative).
example(e75,f77,negative).
example(e75,f78,positive).
example(e75,f79,negative).
example(e75,f80,negative).
example(e75,f81,negative).
example(e75,f82,negative).
example(e75,f83,negative).
example(e75,f84,negative).
example(e75,f85,negative).
example(e76,f1,positive).
example(e76,f2,positive).
example(e76,f3,negative).
example(e76,f4,negative).
example(e76,f5,negative).
example(e76,f6,negative).
example(e76,f7,negative).
example(e76,f8,positive).
example(e76,f9,negative).
example(e76,f10,positive).
example(e76,f11,negative).
example(e76,f12,negative).
example(e76,f13,negative).
example(e76,f14,negative).
example(e76,f15,negative).
example(e76,f16,negative).
example(e76,f17,negative).
example(e76,f18,negative).
example(e76,f19,negative).
example(e76,f20,negative).
example(e76,f21,negative).
example(e76,f22,negative).
example(e76,f23,negative).
example(e76,f24,negative).
example(e76,f25,negative).
example(e76,f26,negative).
example(e76,f27,negative).
example(e76,f28,negative).
example(e76,f29,negative).
example(e76,f30,negative).
example(e76,f31,negative).
example(e76,f32,negative).
example(e76,f33,negative).
example(e76,f34,negative).
example(e76,f35,negative).
example(e76,f36,negative).
example(e76,f37,negative).
example(e76,f38,negative).
example(e76,f39,negative).
example(e76,f40,negative).
example(e76,f41,negative).
example(e76,f42,negative).
example(e76,f43,negative).
example(e76,f44,negative).
example(e76,f45,negative).
example(e76,f46,negative).
example(e76,f47,negative).
example(e76,f48,negative).
example(e76,f49,negative).
example(e76,f50,negative).
example(e76,f51,negative).
example(e76,f52,negative).
example(e76,f53,negative).
example(e76,f54,negative).
example(e76,f55,negative).
example(e76,f56,negative).
example(e76,f57,negative).
example(e76,f58,negative).
example(e76,f59,negative).
example(e76,f60,negative).
example(e76,f61,negative).
example(e76,f62,negative).
example(e76,f63,negative).
example(e76,f64,negative).
example(e76,f65,negative).
example(e76,f66,negative).
example(e76,f67,positive).
example(e76,f68,positive).
example(e76,f69,negative).
example(e76,f70,negative).
example(e76,f71,positive).
example(e76,f72,negative).
example(e76,f73,negative).
example(e76,f74,negative).
example(e76,f75,negative).
example(e76,f76,negative).
example(e76,f77,positive).
example(e76,f78,negative).
example(e76,f79,negative).
example(e76,f80,negative).
example(e76,f81,negative).
example(e76,f82,negative).
example(e76,f83,negative).
example(e76,f84,negative).
example(e76,f85,negative).
example(e77,f1,positive).
example(e77,f2,positive).
example(e77,f3,negative).
example(e77,f4,negative).
example(e77,f5,negative).
example(e77,f6,negative).
example(e77,f7,negative).
example(e77,f8,positive).
example(e77,f9,positive).
example(e77,f10,negative).
example(e77,f11,negative).
example(e77,f12,negative).
example(e77,f13,negative).
example(e77,f14,negative).
example(e77,f15,negative).
example(e77,f16,negative).
example(e77,f17,negative).
example(e77,f18,negative).
example(e77,f19,negative).
example(e77,f20,negative).
example(e77,f21,negative).
example(e77,f22,negative).
example(e77,f23,negative).
example(e77,f24,negative).
example(e77,f25,negative).
example(e77,f26,negative).
example(e77,f27,negative).
example(e77,f28,negative).
example(e77,f29,negative).
example(e77,f30,negative).
example(e77,f31,negative).
example(e77,f32,negative).
example(e77,f33,negative).
example(e77,f34,negative).
example(e77,f35,negative).
example(e77,f36,negative).
example(e77,f37,negative).
example(e77,f38,negative).
example(e77,f39,negative).
example(e77,f40,negative).
example(e77,f41,negative).
example(e77,f42,negative).
example(e77,f43,negative).
example(e77,f44,negative).
example(e77,f45,negative).
example(e77,f46,negative).
example(e77,f47,negative).
example(e77,f48,negative).
example(e77,f49,negative).
example(e77,f50,negative).
example(e77,f51,negative).
example(e77,f52,negative).
example(e77,f53,negative).
example(e77,f54,negative).
example(e77,f55,negative).
example(e77,f56,negative).
example(e77,f57,negative).
example(e77,f58,negative).
example(e77,f59,negative).
example(e77,f60,negative).
example(e77,f61,negative).
example(e77,f62,negative).
example(e77,f63,negative).
example(e77,f64,negative).
example(e77,f65,negative).
example(e77,f66,negative).
example(e77,f67,positive).
example(e77,f68,negative).
example(e77,f69,positive).
example(e77,f70,negative).
example(e77,f71,positive).
example(e77,f72,negative).
example(e77,f73,negative).
example(e77,f74,negative).
example(e77,f75,negative).
example(e77,f76,negative).
example(e77,f77,positive).
example(e77,f78,negative).
example(e77,f79,negative).
example(e77,f80,negative).
example(e77,f81,negative).
example(e77,f82,negative).
example(e77,f83,negative).
example(e77,f84,negative).
example(e77,f85,negative).
example(e78,f1,positive).
example(e78,f2,negative).
example(e78,f3,positive).
example(e78,f4,negative).
example(e78,f5,negative).
example(e78,f6,negative).
example(e78,f7,positive).
example(e78,f8,negative).
example(e78,f9,negative).
example(e78,f10,positive).
example(e78,f11,negative).
example(e78,f12,negative).
example(e78,f13,negative).
example(e78,f14,negative).
example(e78,f15,negative).
example(e78,f16,negative).
example(e78,f17,negative).
example(e78,f18,negative).
example(e78,f19,negative).
example(e78,f20,negative).
example(e78,f21,negative).
example(e78,f22,negative).
example(e78,f23,negative).
example(e78,f24,negative).
example(e78,f25,negative).
example(e78,f26,negative).
example(e78,f27,negative).
example(e78,f28,negative).
example(e78,f29,negative).
example(e78,f30,negative).
example(e78,f31,negative).
example(e78,f32,negative).
example(e78,f33,negative).
example(e78,f34,negative).
example(e78,f35,negative).
example(e78,f36,negative).
example(e78,f37,negative).
example(e78,f38,negative).
example(e78,f39,negative).
example(e78,f40,negative).
example(e78,f41,negative).
example(e78,f42,negative).
example(e78,f43,negative).
example(e78,f44,negative).
example(e78,f45,negative).
example(e78,f46,negative).
example(e78,f47,positive).
example(e78,f48,negative).
example(e78,f49,negative).
example(e78,f50,negative).
example(e78,f51,negative).
example(e78,f52,negative).
example(e78,f53,negative).
example(e78,f54,negative).
example(e78,f55,negative).
example(e78,f56,negative).
example(e78,f57,negative).
example(e78,f58,negative).
example(e78,f59,negative).
example(e78,f60,negative).
example(e78,f61,negative).
example(e78,f62,negative).
example(e78,f63,negative).
example(e78,f64,negative).
example(e78,f65,negative).
example(e78,f66,negative).
example(e78,f67,positive).
example(e78,f68,negative).
example(e78,f69,positive).
example(e78,f70,negative).
example(e78,f71,negative).
example(e78,f72,negative).
example(e78,f73,negative).
example(e78,f74,negative).
example(e78,f75,negative).
example(e78,f76,negative).
example(e78,f77,negative).
example(e78,f78,positive).
example(e78,f79,negative).
example(e78,f80,negative).
example(e78,f81,negative).
example(e78,f82,negative).
example(e78,f83,negative).
example(e78,f84,negative).
example(e78,f85,negative).
example(e79,f1,negative).
example(e79,f2,negative).
example(e79,f3,positive).
example(e79,f4,negative).
example(e79,f5,negative).
example(e79,f6,negative).
example(e79,f7,negative).
example(e79,f8,negative).
example(e79,f9,positive).
example(e79,f10,negative).
example(e79,f11,negative).
example(e79,f12,positive).
example(e79,f13,negative).
example(e79,f14,negative).
example(e79,f15,negative).
example(e79,f16,negative).
example(e79,f17,negative).
example(e79,f18,negative).
example(e79,f19,negative).
example(e79,f20,negative).
example(e79,f21,negative).
example(e79,f22,negative).
example(e79,f23,negative).
example(e79,f24,negative).
example(e79,f25,negative).
example(e79,f26,negative).
example(e79,f27,negative).
example(e79,f28,negative).
example(e79,f29,negative).
example(e79,f30,negative).
example(e79,f31,negative).
example(e79,f32,negative).
example(e79,f33,negative).
example(e79,f34,negative).
example(e79,f35,negative).
example(e79,f36,negative).
example(e79,f37,negative).
example(e79,f38,negative).
example(e79,f39,negative).
example(e79,f40,negative).
example(e79,f41,negative).
example(e79,f42,negative).
example(e79,f43,negative).
example(e79,f44,negative).
example(e79,f45,negative).
example(e79,f46,negative).
example(e79,f47,negative).
example(e79,f48,negative).
example(e79,f49,negative).
example(e79,f50,negative).
example(e79,f51,negative).
example(e79,f52,negative).
example(e79,f53,negative).
example(e79,f54,negative).
example(e79,f55,negative).
example(e79,f56,negative).
example(e79,f57,negative).
example(e79,f58,negative).
example(e79,f59,negative).
example(e79,f60,negative).
example(e79,f61,negative).
example(e79,f62,negative).
example(e79,f63,negative).
example(e79,f64,negative).
example(e79,f65,negative).
example(e79,f66,negative).
example(e79,f67,negative).
example(e79,f68,negative).
example(e79,f69,negative).
example(e79,f70,negative).
example(e79,f71,negative).
example(e79,f72,negative).
example(e79,f73,positive).
example(e79,f74,negative).
example(e79,f75,negative).
example(e79,f76,negative).
example(e79,f77,negative).
example(e79,f78,positive).
example(e79,f79,negative).
example(e79,f80,negative).
example(e79,f81,negative).
example(e79,f82,negative).
example(e79,f83,negative).
example(e79,f84,negative).
example(e79,f85,negative).
example(e80,f1,negative).
example(e80,f2,positive).
example(e80,f3,negative).
example(e80,f4,negative).
example(e80,f5,negative).
example(e80,f6,positive).
example(e80,f7,negative).
example(e80,f8,negative).
example(e80,f9,negative).
example(e80,f10,negative).
example(e80,f11,negative).
example(e80,f12,positive).
example(e80,f13,negative).
example(e80,f14,negative).
example(e80,f15,negative).
example(e80,f16,negative).
example(e80,f17,negative).
example(e80,f18,negative).
example(e80,f19,negative).
example(e80,f20,negative).
example(e80,f21,negative).
example(e80,f22,negative).
example(e80,f23,negative).
example(e80,f24,negative).
example(e80,f25,negative).
example(e80,f26,negative).
example(e80,f27,negative).
example(e80,f28,negative).
example(e80,f29,negative).
example(e80,f30,negative).
example(e80,f31,negative).
example(e80,f32,negative).
example(e80,f33,negative).
example(e80,f34,negative).
example(e80,f35,negative).
example(e80,f36,negative).
example(e80,f37,negative).
example(e80,f38,negative).
example(e80,f39,negative).
example(e80,f40,negative).
example(e80,f41,negative).
example(e80,f42,negative).
example(e80,f43,negative).
example(e80,f44,negative).
example(e80,f45,negative).
example(e80,f46,negative).
example(e80,f47,negative).
example(e80,f48,negative).
example(e80,f49,negative).
example(e80,f50,negative).
example(e80,f51,negative).
example(e80,f52,negative).
example(e80,f53,negative).
example(e80,f54,negative).
example(e80,f55,negative).
example(e80,f56,negative).
example(e80,f57,negative).
example(e80,f58,negative).
example(e80,f59,negative).
example(e80,f60,negative).
example(e80,f61,negative).
example(e80,f62,negative).
example(e80,f63,negative).
example(e80,f64,negative).
example(e80,f65,negative).
example(e80,f66,negative).
example(e80,f67,negative).
example(e80,f68,positive).
example(e80,f69,negative).
example(e80,f70,negative).
example(e80,f71,negative).
example(e80,f72,negative).
example(e80,f73,negative).
example(e80,f74,negative).
example(e80,f75,negative).
example(e80,f76,negative).
example(e80,f77,negative).
example(e80,f78,positive).
example(e80,f79,positive).
example(e80,f80,negative).
example(e80,f81,negative).
example(e80,f82,negative).
example(e80,f83,negative).
example(e80,f84,negative).
example(e80,f85,negative).
example(e81,f1,negative).
example(e81,f2,negative).
example(e81,f3,positive).
example(e81,f4,negative).
example(e81,f5,negative).
example(e81,f6,negative).
example(e81,f7,positive).
example(e81,f8,negative).
example(e81,f9,negative).
example(e81,f10,negative).
example(e81,f11,negative).
example(e81,f12,negative).
example(e81,f13,negative).
example(e81,f14,negative).
example(e81,f15,negative).
example(e81,f16,negative).
example(e81,f17,negative).
example(e81,f18,negative).
example(e81,f19,negative).
example(e81,f20,negative).
example(e81,f21,negative).
example(e81,f22,negative).
example(e81,f23,negative).
example(e81,f24,negative).
example(e81,f25,negative).
example(e81,f26,negative).
example(e81,f27,negative).
example(e81,f28,negative).
example(e81,f29,negative).
example(e81,f30,negative).
example(e81,f31,negative).
example(e81,f32,negative).
example(e81,f33,negative).
example(e81,f34,negative).
example(e81,f35,negative).
example(e81,f36,negative).
example(e81,f37,negative).
example(e81,f38,negative).
example(e81,f39,negative).
example(e81,f40,negative).
example(e81,f41,negative).
example(e81,f42,negative).
example(e81,f43,negative).
example(e81,f44,negative).
example(e81,f45,negative).
example(e81,f46,negative).
example(e81,f47,negative).
example(e81,f48,negative).
example(e81,f49,negative).
example(e81,f50,negative).
example(e81,f51,negative).
example(e81,f52,negative).
example(e81,f53,negative).
example(e81,f54,negative).
example(e81,f55,negative).
example(e81,f56,negative).
example(e81,f57,negative).
example(e81,f58,negative).
example(e81,f59,negative).
example(e81,f60,negative).
example(e81,f61,negative).
example(e81,f62,negative).
example(e81,f63,negative).
example(e81,f64,negative).
example(e81,f65,negative).
example(e81,f66,positive).
example(e81,f67,negative).
example(e81,f68,positive).
example(e81,f69,negative).
example(e81,f70,negative).
example(e81,f71,negative).
example(e81,f72,negative).
example(e81,f73,positive).
example(e81,f74,negative).
example(e81,f75,negative).
example(e81,f76,negative).
example(e81,f77,negative).
example(e81,f78,positive).
example(e81,f79,negative).
example(e81,f80,negative).
example(e81,f81,negative).
example(e81,f82,negative).
example(e81,f83,negative).
example(e81,f84,negative).
example(e81,f85,negative).
example(e82,f1,negative).
example(e82,f2,negative).
example(e82,f3,positive).
example(e82,f4,negative).
example(e82,f5,negative).
example(e82,f6,negative).
example(e82,f7,positive).
example(e82,f8,negative).
example(e82,f9,positive).
example(e82,f10,negative).
example(e82,f11,negative).
example(e82,f12,positive).
example(e82,f13,negative).
example(e82,f14,negative).
example(e82,f15,negative).
example(e82,f16,negative).
example(e82,f17,negative).
example(e82,f18,negative).
example(e82,f19,negative).
example(e82,f20,negative).
example(e82,f21,negative).
example(e82,f22,negative).
example(e82,f23,negative).
example(e82,f24,negative).
example(e82,f25,negative).
example(e82,f26,negative).
example(e82,f27,negative).
example(e82,f28,negative).
example(e82,f29,negative).
example(e82,f30,negative).
example(e82,f31,negative).
example(e82,f32,negative).
example(e82,f33,negative).
example(e82,f34,negative).
example(e82,f35,negative).
example(e82,f36,negative).
example(e82,f37,negative).
example(e82,f38,negative).
example(e82,f39,negative).
example(e82,f40,negative).
example(e82,f41,negative).
example(e82,f42,negative).
example(e82,f43,negative).
example(e82,f44,negative).
example(e82,f45,negative).
example(e82,f46,negative).
example(e82,f47,negative).
example(e82,f48,negative).
example(e82,f49,negative).
example(e82,f50,negative).
example(e82,f51,negative).
example(e82,f52,negative).
example(e82,f53,negative).
example(e82,f54,negative).
example(e82,f55,negative).
example(e82,f56,negative).
example(e82,f57,negative).
example(e82,f58,negative).
example(e82,f59,negative).
example(e82,f60,negative).
example(e82,f61,negative).
example(e82,f62,positive).
example(e82,f63,negative).
example(e82,f64,negative).
example(e82,f65,negative).
example(e82,f66,positive).
example(e82,f67,negative).
example(e82,f68,negative).
example(e82,f69,negative).
example(e82,f70,negative).
example(e82,f71,negative).
example(e82,f72,negative).
example(e82,f73,positive).
example(e82,f74,negative).
example(e82,f75,negative).
example(e82,f76,negative).
example(e82,f77,negative).
example(e82,f78,positive).
example(e82,f79,negative).
example(e82,f80,negative).
example(e82,f81,negative).
example(e82,f82,negative).
example(e82,f83,negative).
example(e82,f84,negative).
example(e82,f85,negative).
example(e83,f1,negative).
example(e83,f2,negative).
example(e83,f3,negative).
example(e83,f4,negative).
example(e83,f5,negative).
example(e83,f6,negative).
example(e83,f7,negative).
example(e83,f8,positive).
example(e83,f9,negative).
example(e83,f10,positive).
example(e83,f11,negative).
example(e83,f12,negative).
example(e83,f13,negative).
example(e83,f14,negative).
example(e83,f15,negative).
example(e83,f16,negative).
example(e83,f17,negative).
example(e83,f18,negative).
example(e83,f19,negative).
example(e83,f20,negative).
example(e83,f21,negative).
example(e83,f22,negative).
example(e83,f23,negative).
example(e83,f24,negative).
example(e83,f25,negative).
example(e83,f26,negative).
example(e83,f27,negative).
example(e83,f28,negative).
example(e83,f29,negative).
example(e83,f30,negative).
example(e83,f31,negative).
example(e83,f32,negative).
example(e83,f33,negative).
example(e83,f34,negative).
example(e83,f35,negative).
example(e83,f36,negative).
example(e83,f37,negative).
example(e83,f38,negative).
example(e83,f39,negative).
example(e83,f40,negative).
example(e83,f41,negative).
example(e83,f42,negative).
example(e83,f43,negative).
example(e83,f44,negative).
example(e83,f45,negative).
example(e83,f46,negative).
example(e83,f47,negative).
example(e83,f48,negative).
example(e83,f49,negative).
example(e83,f50,negative).
example(e83,f51,negative).
example(e83,f52,negative).
example(e83,f53,negative).
example(e83,f54,negative).
example(e83,f55,negative).
example(e83,f56,negative).
example(e83,f57,negative).
example(e83,f58,negative).
example(e83,f59,negative).
example(e83,f60,positive).
example(e83,f61,negative).
example(e83,f62,negative).
example(e83,f63,negative).
example(e83,f64,negative).
example(e83,f65,negative).
example(e83,f66,negative).
example(e83,f67,positive).
example(e83,f68,negative).
example(e83,f69,positive).
example(e83,f70,negative).
example(e83,f71,negative).
example(e83,f72,negative).
example(e83,f73,negative).
example(e83,f74,negative).
example(e83,f75,negative).
example(e83,f76,negative).
example(e83,f77,negative).
example(e83,f78,positive).
example(e83,f79,negative).
example(e83,f80,negative).
example(e83,f81,negative).
example(e83,f82,negative).
example(e83,f83,negative).
example(e83,f84,negative).
example(e83,f85,negative).
example(e84,f1,positive).
example(e84,f2,negative).
example(e84,f3,negative).
example(e84,f4,negative).
example(e84,f5,negative).
example(e84,f6,negative).
example(e84,f7,negative).
example(e84,f8,positive).
example(e84,f9,negative).
example(e84,f10,positive).
example(e84,f11,negative).
example(e84,f12,negative).
example(e84,f13,negative).
example(e84,f14,negative).
example(e84,f15,negative).
example(e84,f16,negative).
example(e84,f17,negative).
example(e84,f18,negative).
example(e84,f19,negative).
example(e84,f20,negative).
example(e84,f21,negative).
example(e84,f22,negative).
example(e84,f23,negative).
example(e84,f24,negative).
example(e84,f25,negative).
example(e84,f26,negative).
example(e84,f27,negative).
example(e84,f28,negative).
example(e84,f29,negative).
example(e84,f30,negative).
example(e84,f31,negative).
example(e84,f32,negative).
example(e84,f33,negative).
example(e84,f34,negative).
example(e84,f35,negative).
example(e84,f36,negative).
example(e84,f37,negative).
example(e84,f38,negative).
example(e84,f39,negative).
example(e84,f40,negative).
example(e84,f41,negative).
example(e84,f42,negative).
example(e84,f43,negative).
example(e84,f44,negative).
example(e84,f45,negative).
example(e84,f46,negative).
example(e84,f47,negative).
example(e84,f48,negative).
example(e84,f49,negative).
example(e84,f50,negative).
example(e84,f51,negative).
example(e84,f52,negative).
example(e84,f53,negative).
example(e84,f54,negative).
example(e84,f55,negative).
example(e84,f56,negative).
example(e84,f57,negative).
example(e84,f58,negative).
example(e84,f59,negative).
example(e84,f60,negative).
example(e84,f61,negative).
example(e84,f62,negative).
example(e84,f63,negative).
example(e84,f64,negative).
example(e84,f65,negative).
example(e84,f66,negative).
example(e84,f67,positive).
example(e84,f68,positive).
example(e84,f69,negative).
example(e84,f70,negative).
example(e84,f71,negative).
example(e84,f72,negative).
example(e84,f73,negative).
example(e84,f74,negative).
example(e84,f75,negative).
example(e84,f76,positive).
example(e84,f77,negative).
example(e84,f78,negative).
example(e84,f79,negative).
example(e84,f80,negative).
example(e84,f81,negative).
example(e84,f82,negative).
example(e84,f83,negative).
example(e84,f84,negative).
example(e84,f85,negative).
example(e85,f1,positive).
example(e85,f2,negative).
example(e85,f3,negative).
example(e85,f4,negative).
example(e85,f5,negative).
example(e85,f6,negative).
example(e85,f7,negative).
example(e85,f8,positive).
example(e85,f9,positive).
example(e85,f10,negative).
example(e85,f11,negative).
example(e85,f12,negative).
example(e85,f13,negative).
example(e85,f14,negative).
example(e85,f15,negative).
example(e85,f16,negative).
example(e85,f17,negative).
example(e85,f18,negative).
example(e85,f19,negative).
example(e85,f20,negative).
example(e85,f21,negative).
example(e85,f22,negative).
example(e85,f23,negative).
example(e85,f24,negative).
example(e85,f25,negative).
example(e85,f26,negative).
example(e85,f27,negative).
example(e85,f28,negative).
example(e85,f29,negative).
example(e85,f30,negative).
example(e85,f31,negative).
example(e85,f32,negative).
example(e85,f33,negative).
example(e85,f34,negative).
example(e85,f35,negative).
example(e85,f36,negative).
example(e85,f37,negative).
example(e85,f38,negative).
example(e85,f39,negative).
example(e85,f40,negative).
example(e85,f41,negative).
example(e85,f42,negative).
example(e85,f43,negative).
example(e85,f44,negative).
example(e85,f45,negative).
example(e85,f46,negative).
example(e85,f47,negative).
example(e85,f48,negative).
example(e85,f49,negative).
example(e85,f50,negative).
example(e85,f51,negative).
example(e85,f52,negative).
example(e85,f53,negative).
example(e85,f54,negative).
example(e85,f55,negative).
example(e85,f56,negative).
example(e85,f57,negative).
example(e85,f58,negative).
example(e85,f59,negative).
example(e85,f60,negative).
example(e85,f61,negative).
example(e85,f62,negative).
example(e85,f63,negative).
example(e85,f64,negative).
example(e85,f65,negative).
example(e85,f66,negative).
example(e85,f67,positive).
example(e85,f68,positive).
example(e85,f69,negative).
example(e85,f70,negative).
example(e85,f71,negative).
example(e85,f72,negative).
example(e85,f73,negative).
example(e85,f74,positive).
example(e85,f75,negative).
example(e85,f76,negative).
example(e85,f77,negative).
example(e85,f78,positive).
example(e85,f79,negative).
example(e85,f80,negative).
example(e85,f81,negative).
example(e85,f82,negative).
example(e85,f83,negative).
example(e85,f84,negative).
example(e85,f85,negative).
example(e86,f1,negative).
example(e86,f2,negative).
example(e86,f3,positive).
example(e86,f4,negative).
example(e86,f5,negative).
example(e86,f6,negative).
example(e86,f7,negative).
example(e86,f8,positive).
example(e86,f9,positive).
example(e86,f10,negative).
example(e86,f11,negative).
example(e86,f12,negative).
example(e86,f13,negative).
example(e86,f14,negative).
example(e86,f15,negative).
example(e86,f16,negative).
example(e86,f17,negative).
example(e86,f18,negative).
example(e86,f19,negative).
example(e86,f20,negative).
example(e86,f21,negative).
example(e86,f22,positive).
example(e86,f23,negative).
example(e86,f24,negative).
example(e86,f25,negative).
example(e86,f26,negative).
example(e86,f27,negative).
example(e86,f28,negative).
example(e86,f29,negative).
example(e86,f30,negative).
example(e86,f31,negative).
example(e86,f32,negative).
example(e86,f33,negative).
example(e86,f34,positive).
example(e86,f35,negative).
example(e86,f36,negative).
example(e86,f37,negative).
example(e86,f38,negative).
example(e86,f39,negative).
example(e86,f40,negative).
example(e86,f41,negative).
example(e86,f42,negative).
example(e86,f43,negative).
example(e86,f44,negative).
example(e86,f45,negative).
example(e86,f46,negative).
example(e86,f47,negative).
example(e86,f48,negative).
example(e86,f49,negative).
example(e86,f50,negative).
example(e86,f51,negative).
example(e86,f52,negative).
example(e86,f53,negative).
example(e86,f54,negative).
example(e86,f55,negative).
example(e86,f56,negative).
example(e86,f57,negative).
example(e86,f58,negative).
example(e86,f59,negative).
example(e86,f60,negative).
example(e86,f61,negative).
example(e86,f62,negative).
example(e86,f63,negative).
example(e86,f64,positive).
example(e86,f65,negative).
example(e86,f66,positive).
example(e86,f67,negative).
example(e86,f68,negative).
example(e86,f69,positive).
example(e86,f70,negative).
example(e86,f71,negative).
example(e86,f72,negative).
example(e86,f73,negative).
example(e86,f74,negative).
example(e86,f75,negative).
example(e86,f76,positive).
example(e86,f77,negative).
example(e86,f78,positive).
example(e86,f79,negative).
example(e86,f80,negative).
example(e86,f81,negative).
example(e86,f82,negative).
example(e86,f83,negative).
example(e86,f84,negative).
example(e86,f85,negative).
example(e87,f1,negative).
example(e87,f2,negative).
example(e87,f3,positive).
example(e87,f4,negative).
example(e87,f5,negative).
example(e87,f6,negative).
example(e87,f7,positive).
example(e87,f8,negative).
example(e87,f9,negative).
example(e87,f10,positive).
example(e87,f11,negative).
example(e87,f12,negative).
example(e87,f13,negative).
example(e87,f14,negative).
example(e87,f15,negative).
example(e87,f16,negative).
example(e87,f17,negative).
example(e87,f18,negative).
example(e87,f19,negative).
example(e87,f20,negative).
example(e87,f21,negative).
example(e87,f22,positive).
example(e87,f23,negative).
example(e87,f24,negative).
example(e87,f25,negative).
example(e87,f26,negative).
example(e87,f27,negative).
example(e87,f28,negative).
example(e87,f29,negative).
example(e87,f30,negative).
example(e87,f31,negative).
example(e87,f32,negative).
example(e87,f33,negative).
example(e87,f34,positive).
example(e87,f35,negative).
example(e87,f36,negative).
example(e87,f37,negative).
example(e87,f38,negative).
example(e87,f39,negative).
example(e87,f40,negative).
example(e87,f41,negative).
example(e87,f42,negative).
example(e87,f43,negative).
example(e87,f44,negative).
example(e87,f45,negative).
example(e87,f46,negative).
example(e87,f47,negative).
example(e87,f48,negative).
example(e87,f49,negative).
example(e87,f50,negative).
example(e87,f51,negative).
example(e87,f52,negative).
example(e87,f53,negative).
example(e87,f54,negative).
example(e87,f55,negative).
example(e87,f56,negative).
example(e87,f57,negative).
example(e87,f58,negative).
example(e87,f59,negative).
example(e87,f60,negative).
example(e87,f61,negative).
example(e87,f62,negative).
example(e87,f63,negative).
example(e87,f64,positive).
example(e87,f65,negative).
example(e87,f66,negative).
example(e87,f67,positive).
example(e87,f68,positive).
example(e87,f69,negative).
example(e87,f70,negative).
example(e87,f71,negative).
example(e87,f72,negative).
example(e87,f73,positive).
example(e87,f74,negative).
example(e87,f75,negative).
example(e87,f76,negative).
example(e87,f77,negative).
example(e87,f78,positive).
example(e87,f79,negative).
example(e87,f80,negative).
example(e87,f81,negative).
example(e87,f82,negative).
example(e87,f83,negative).
example(e87,f84,negative).
example(e87,f85,negative).
example(e88,f1,positive).
example(e88,f2,negative).
example(e88,f3,negative).
example(e88,f4,negative).
example(e88,f5,negative).
example(e88,f6,negative).
example(e88,f7,negative).
example(e88,f8,positive).
example(e88,f9,negative).
example(e88,f10,positive).
example(e88,f11,negative).
example(e88,f12,negative).
example(e88,f13,negative).
example(e88,f14,negative).
example(e88,f15,negative).
example(e88,f16,negative).
example(e88,f17,negative).
example(e88,f18,negative).
example(e88,f19,negative).
example(e88,f20,negative).
example(e88,f21,negative).
example(e88,f22,positive).
example(e88,f23,negative).
example(e88,f24,negative).
example(e88,f25,negative).
example(e88,f26,negative).
example(e88,f27,negative).
example(e88,f28,negative).
example(e88,f29,negative).
example(e88,f30,negative).
example(e88,f31,negative).
example(e88,f32,negative).
example(e88,f33,negative).
example(e88,f34,negative).
example(e88,f35,negative).
example(e88,f36,negative).
example(e88,f37,negative).
example(e88,f38,negative).
example(e88,f39,negative).
example(e88,f40,negative).
example(e88,f41,negative).
example(e88,f42,negative).
example(e88,f43,negative).
example(e88,f44,negative).
example(e88,f45,negative).
example(e88,f46,negative).
example(e88,f47,negative).
example(e88,f48,negative).
example(e88,f49,negative).
example(e88,f50,negative).
example(e88,f51,negative).
example(e88,f52,negative).
example(e88,f53,negative).
example(e88,f54,negative).
example(e88,f55,negative).
example(e88,f56,negative).
example(e88,f57,negative).
example(e88,f58,negative).
example(e88,f59,negative).
example(e88,f60,negative).
example(e88,f61,negative).
example(e88,f62,negative).
example(e88,f63,positive).
example(e88,f64,positive).
example(e88,f65,negative).
example(e88,f66,negative).
example(e88,f67,positive).
example(e88,f68,negative).
example(e88,f69,positive).
example(e88,f70,negative).
example(e88,f71,negative).
example(e88,f72,negative).
example(e88,f73,negative).
example(e88,f74,negative).
example(e88,f75,negative).
example(e88,f76,negative).
example(e88,f77,negative).
example(e88,f78,positive).
example(e88,f79,negative).
example(e88,f80,negative).
example(e88,f81,negative).
example(e88,f82,negative).
example(e88,f83,negative).
example(e88,f84,negative).
example(e88,f85,negative).
example(e89,f1,positive).
example(e89,f2,negative).
example(e89,f3,negative).
example(e89,f4,negative).
example(e89,f5,negative).
example(e89,f6,negative).
example(e89,f7,negative).
example(e89,f8,positive).
example(e89,f9,negative).
example(e89,f10,positive).
example(e89,f11,negative).
example(e89,f12,negative).
example(e89,f13,negative).
example(e89,f14,negative).
example(e89,f15,negative).
example(e89,f16,negative).
example(e89,f17,negative).
example(e89,f18,negative).
example(e89,f19,negative).
example(e89,f20,negative).
example(e89,f21,negative).
example(e89,f22,positive).
example(e89,f23,negative).
example(e89,f24,negative).
example(e89,f25,negative).
example(e89,f26,negative).
example(e89,f27,negative).
example(e89,f28,negative).
example(e89,f29,negative).
example(e89,f30,negative).
example(e89,f31,negative).
example(e89,f32,negative).
example(e89,f33,negative).
example(e89,f34,negative).
example(e89,f35,negative).
example(e89,f36,negative).
example(e89,f37,negative).
example(e89,f38,negative).
example(e89,f39,negative).
example(e89,f40,negative).
example(e89,f41,negative).
example(e89,f42,negative).
example(e89,f43,negative).
example(e89,f44,negative).
example(e89,f45,negative).
example(e89,f46,negative).
example(e89,f47,negative).
example(e89,f48,negative).
example(e89,f49,negative).
example(e89,f50,negative).
example(e89,f51,negative).
example(e89,f52,negative).
example(e89,f53,negative).
example(e89,f54,negative).
example(e89,f55,negative).
example(e89,f56,negative).
example(e89,f57,positive).
example(e89,f58,negative).
example(e89,f59,negative).
example(e89,f60,negative).
example(e89,f61,negative).
example(e89,f62,negative).
example(e89,f63,negative).
example(e89,f64,positive).
example(e89,f65,negative).
example(e89,f66,negative).
example(e89,f67,positive).
example(e89,f68,negative).
example(e89,f69,positive).
example(e89,f70,negative).
example(e89,f71,negative).
example(e89,f72,negative).
example(e89,f73,negative).
example(e89,f74,positive).
example(e89,f75,negative).
example(e89,f76,negative).
example(e89,f77,negative).
example(e89,f78,positive).
example(e89,f79,negative).
example(e89,f80,negative).
example(e89,f81,negative).
example(e89,f82,negative).
example(e89,f83,negative).
example(e89,f84,negative).
example(e89,f85,negative).
example(e90,f1,negative).
example(e90,f2,negative).
example(e90,f3,positive).
example(e90,f4,negative).
example(e90,f5,negative).
example(e90,f6,negative).
example(e90,f7,positive).
example(e90,f8,negative).
example(e90,f9,positive).
example(e90,f10,negative).
example(e90,f11,negative).
example(e90,f12,positive).
example(e90,f13,negative).
example(e90,f14,negative).
example(e90,f15,negative).
example(e90,f16,negative).
example(e90,f17,negative).
example(e90,f18,negative).
example(e90,f19,negative).
example(e90,f20,negative).
example(e90,f21,negative).
example(e90,f22,negative).
example(e90,f23,negative).
example(e90,f24,negative).
example(e90,f25,negative).
example(e90,f26,negative).
example(e90,f27,negative).
example(e90,f28,negative).
example(e90,f29,negative).
example(e90,f30,negative).
example(e90,f31,negative).
example(e90,f32,negative).
example(e90,f33,negative).
example(e90,f34,negative).
example(e90,f35,negative).
example(e90,f36,negative).
example(e90,f37,negative).
example(e90,f38,negative).
example(e90,f39,negative).
example(e90,f40,negative).
example(e90,f41,negative).
example(e90,f42,negative).
example(e90,f43,negative).
example(e90,f44,negative).
example(e90,f45,negative).
example(e90,f46,negative).
example(e90,f47,negative).
example(e90,f48,negative).
example(e90,f49,negative).
example(e90,f50,negative).
example(e90,f51,negative).
example(e90,f52,negative).
example(e90,f53,negative).
example(e90,f54,negative).
example(e90,f55,negative).
example(e90,f56,negative).
example(e90,f57,negative).
example(e90,f58,negative).
example(e90,f59,negative).
example(e90,f60,positive).
example(e90,f61,negative).
example(e90,f62,negative).
example(e90,f63,negative).
example(e90,f64,positive).
example(e90,f65,negative).
example(e90,f66,negative).
example(e90,f67,positive).
example(e90,f68,negative).
example(e90,f69,positive).
example(e90,f70,negative).
example(e90,f71,negative).
example(e90,f72,negative).
example(e90,f73,positive).
example(e90,f74,negative).
example(e90,f75,negative).
example(e90,f76,negative).
example(e90,f77,negative).
example(e90,f78,positive).
example(e90,f79,negative).
example(e90,f80,negative).
example(e90,f81,negative).
example(e90,f82,negative).
example(e90,f83,negative).
example(e90,f84,negative).
example(e90,f85,negative).
example(e91,f1,negative).
example(e91,f2,negative).
example(e91,f3,positive).
example(e91,f4,negative).
example(e91,f5,negative).
example(e91,f6,negative).
example(e91,f7,negative).
example(e91,f8,positive).
example(e91,f9,negative).
example(e91,f10,positive).
example(e91,f11,negative).
example(e91,f12,positive).
example(e91,f13,negative).
example(e91,f14,negative).
example(e91,f15,negative).
example(e91,f16,negative).
example(e91,f17,negative).
example(e91,f18,negative).
example(e91,f19,negative).
example(e91,f20,negative).
example(e91,f21,negative).
example(e91,f22,negative).
example(e91,f23,negative).
example(e91,f24,negative).
example(e91,f25,negative).
example(e91,f26,negative).
example(e91,f27,negative).
example(e91,f28,negative).
example(e91,f29,negative).
example(e91,f30,negative).
example(e91,f31,negative).
example(e91,f32,negative).
example(e91,f33,negative).
example(e91,f34,negative).
example(e91,f35,negative).
example(e91,f36,negative).
example(e91,f37,negative).
example(e91,f38,negative).
example(e91,f39,negative).
example(e91,f40,negative).
example(e91,f41,negative).
example(e91,f42,negative).
example(e91,f43,negative).
example(e91,f44,negative).
example(e91,f45,negative).
example(e91,f46,negative).
example(e91,f47,negative).
example(e91,f48,negative).
example(e91,f49,negative).
example(e91,f50,negative).
example(e91,f51,negative).
example(e91,f52,negative).
example(e91,f53,negative).
example(e91,f54,negative).
example(e91,f55,negative).
example(e91,f56,negative).
example(e91,f57,negative).
example(e91,f58,negative).
example(e91,f59,negative).
example(e91,f60,negative).
example(e91,f61,negative).
example(e91,f62,negative).
example(e91,f63,negative).
example(e91,f64,negative).
example(e91,f65,negative).
example(e91,f66,positive).
example(e91,f67,negative).
example(e91,f68,positive).
example(e91,f69,negative).
example(e91,f70,negative).
example(e91,f71,negative).
example(e91,f72,negative).
example(e91,f73,positive).
example(e91,f74,negative).
example(e91,f75,negative).
example(e91,f76,negative).
example(e91,f77,negative).
example(e91,f78,positive).
example(e91,f79,negative).
example(e91,f80,negative).
example(e91,f81,negative).
example(e91,f82,negative).
example(e91,f83,negative).
example(e91,f84,negative).
example(e91,f85,negative).
example(e92,f1,negative).
example(e92,f2,negative).
example(e92,f3,negative).
example(e92,f4,negative).
example(e92,f5,negative).
example(e92,f6,negative).
example(e92,f7,negative).
example(e92,f8,negative).
example(e92,f9,negative).
example(e92,f10,positive).
example(e92,f11,negative).
example(e92,f12,negative).
example(e92,f13,negative).
example(e92,f14,negative).
example(e92,f15,negative).
example(e92,f16,negative).
example(e92,f17,negative).
example(e92,f18,negative).
example(e92,f19,negative).
example(e92,f20,negative).
example(e92,f21,negative).
example(e92,f22,negative).
example(e92,f23,negative).
example(e92,f24,negative).
example(e92,f25,negative).
example(e92,f26,negative).
example(e92,f27,negative).
example(e92,f28,negative).
example(e92,f29,negative).
example(e92,f30,negative).
example(e92,f31,negative).
example(e92,f32,negative).
example(e92,f33,negative).
example(e92,f34,negative).
example(e92,f35,negative).
example(e92,f36,negative).
example(e92,f37,negative).
example(e92,f38,negative).
example(e92,f39,negative).
example(e92,f40,negative).
example(e92,f41,negative).
example(e92,f42,negative).
example(e92,f43,negative).
example(e92,f44,negative).
example(e92,f45,negative).
example(e92,f46,negative).
example(e92,f47,negative).
example(e92,f48,negative).
example(e92,f49,negative).
example(e92,f50,negative).
example(e92,f51,negative).
example(e92,f52,negative).
example(e92,f53,negative).
example(e92,f54,negative).
example(e92,f55,negative).
example(e92,f56,negative).
example(e92,f57,negative).
example(e92,f58,negative).
example(e92,f59,negative).
example(e92,f60,negative).
example(e92,f61,negative).
example(e92,f62,negative).
example(e92,f63,negative).
example(e92,f64,negative).
example(e92,f65,negative).
example(e92,f66,positive).
example(e92,f67,negative).
example(e92,f68,negative).
example(e92,f69,negative).
example(e92,f70,negative).
example(e92,f71,negative).
example(e92,f72,negative).
example(e92,f73,negative).
example(e92,f74,negative).
example(e92,f75,negative).
example(e92,f76,negative).
example(e92,f77,negative).
example(e92,f78,positive).
example(e92,f79,negative).
example(e92,f80,negative).
example(e92,f81,negative).
example(e92,f82,negative).
example(e92,f83,negative).
example(e92,f84,negative).
example(e92,f85,negative).
example(e93,f1,negative).
example(e93,f2,negative).
example(e93,f3,positive).
example(e93,f4,negative).
example(e93,f5,negative).
example(e93,f6,negative).
example(e93,f7,positive).
example(e93,f8,negative).
example(e93,f9,negative).
example(e93,f10,positive).
example(e93,f11,negative).
example(e93,f12,negative).
example(e93,f13,negative).
example(e93,f14,negative).
example(e93,f15,negative).
example(e93,f16,negative).
example(e93,f17,negative).
example(e93,f18,negative).
example(e93,f19,negative).
example(e93,f20,negative).
example(e93,f21,negative).
example(e93,f22,negative).
example(e93,f23,negative).
example(e93,f24,negative).
example(e93,f25,negative).
example(e93,f26,negative).
example(e93,f27,negative).
example(e93,f28,negative).
example(e93,f29,negative).
example(e93,f30,negative).
example(e93,f31,negative).
example(e93,f32,negative).
example(e93,f33,negative).
example(e93,f34,negative).
example(e93,f35,negative).
example(e93,f36,negative).
example(e93,f37,negative).
example(e93,f38,negative).
example(e93,f39,negative).
example(e93,f40,negative).
example(e93,f41,negative).
example(e93,f42,negative).
example(e93,f43,negative).
example(e93,f44,negative).
example(e93,f45,negative).
example(e93,f46,negative).
example(e93,f47,negative).
example(e93,f48,negative).
example(e93,f49,negative).
example(e93,f50,negative).
example(e93,f51,negative).
example(e93,f52,negative).
example(e93,f53,negative).
example(e93,f54,negative).
example(e93,f55,negative).
example(e93,f56,negative).
example(e93,f57,negative).
example(e93,f58,negative).
example(e93,f59,negative).
example(e93,f60,negative).
example(e93,f61,negative).
example(e93,f62,negative).
example(e93,f63,negative).
example(e93,f64,negative).
example(e93,f65,negative).
example(e93,f66,negative).
example(e93,f67,positive).
example(e93,f68,negative).
example(e93,f69,negative).
example(e93,f70,negative).
example(e93,f71,negative).
example(e93,f72,negative).
example(e93,f73,positive).
example(e93,f74,negative).
example(e93,f75,negative).
example(e93,f76,negative).
example(e93,f77,negative).
example(e93,f78,positive).
example(e93,f79,negative).
example(e93,f80,negative).
example(e93,f81,negative).
example(e93,f82,negative).
example(e93,f83,negative).
example(e93,f84,negative).
example(e93,f85,negative).
example(e94,f1,positive).
example(e94,f2,negative).
example(e94,f3,negative).
example(e94,f4,negative).
example(e94,f5,negative).
example(e94,f6,negative).
example(e94,f7,negative).
example(e94,f8,negative).
example(e94,f9,negative).
example(e94,f10,negative).
example(e94,f11,negative).
example(e94,f12,negative).
example(e94,f13,negative).
example(e94,f14,negative).
example(e94,f15,negative).
example(e94,f16,negative).
example(e94,f17,negative).
example(e94,f18,negative).
example(e94,f19,negative).
example(e94,f20,negative).
example(e94,f21,negative).
example(e94,f22,positive).
example(e94,f23,negative).
example(e94,f24,negative).
example(e94,f25,negative).
example(e94,f26,negative).
example(e94,f27,negative).
example(e94,f28,negative).
example(e94,f29,negative).
example(e94,f30,negative).
example(e94,f31,negative).
example(e94,f32,negative).
example(e94,f33,negative).
example(e94,f34,negative).
example(e94,f35,negative).
example(e94,f36,negative).
example(e94,f37,negative).
example(e94,f38,negative).
example(e94,f39,negative).
example(e94,f40,negative).
example(e94,f41,negative).
example(e94,f42,negative).
example(e94,f43,negative).
example(e94,f44,positive).
example(e94,f45,negative).
example(e94,f46,negative).
example(e94,f47,negative).
example(e94,f48,negative).
example(e94,f49,negative).
example(e94,f50,negative).
example(e94,f51,negative).
example(e94,f52,negative).
example(e94,f53,negative).
example(e94,f54,negative).
example(e94,f55,negative).
example(e94,f56,negative).
example(e94,f57,negative).
example(e94,f58,negative).
example(e94,f59,negative).
example(e94,f60,negative).
example(e94,f61,negative).
example(e94,f62,negative).
example(e94,f63,negative).
example(e94,f64,positive).
example(e94,f65,negative).
example(e94,f66,negative).
example(e94,f67,negative).
example(e94,f68,negative).
example(e94,f69,negative).
example(e94,f70,negative).
example(e94,f71,negative).
example(e94,f72,negative).
example(e94,f73,negative).
example(e94,f74,negative).
example(e94,f75,negative).
example(e94,f76,negative).
example(e94,f77,negative).
example(e94,f78,positive).
example(e94,f79,negative).
example(e94,f80,negative).
example(e94,f81,negative).
example(e94,f82,negative).
example(e94,f83,negative).
example(e94,f84,negative).
example(e94,f85,negative).
example(e95,f1,positive).
example(e95,f2,negative).
example(e95,f3,negative).
example(e95,f4,negative).
example(e95,f5,negative).
example(e95,f6,negative).
example(e95,f7,negative).
example(e95,f8,negative).
example(e95,f9,negative).
example(e95,f10,negative).
example(e95,f11,negative).
example(e95,f12,negative).
example(e95,f13,negative).
example(e95,f14,negative).
example(e95,f15,negative).
example(e95,f16,negative).
example(e95,f17,negative).
example(e95,f18,negative).
example(e95,f19,negative).
example(e95,f20,negative).
example(e95,f21,negative).
example(e95,f22,positive).
example(e95,f23,negative).
example(e95,f24,negative).
example(e95,f25,negative).
example(e95,f26,negative).
example(e95,f27,negative).
example(e95,f28,negative).
example(e95,f29,negative).
example(e95,f30,negative).
example(e95,f31,negative).
example(e95,f32,negative).
example(e95,f33,negative).
example(e95,f34,negative).
example(e95,f35,negative).
example(e95,f36,negative).
example(e95,f37,negative).
example(e95,f38,negative).
example(e95,f39,negative).
example(e95,f40,negative).
example(e95,f41,negative).
example(e95,f42,negative).
example(e95,f43,negative).
example(e95,f44,positive).
example(e95,f45,negative).
example(e95,f46,negative).
example(e95,f47,negative).
example(e95,f48,negative).
example(e95,f49,negative).
example(e95,f50,negative).
example(e95,f51,negative).
example(e95,f52,negative).
example(e95,f53,negative).
example(e95,f54,negative).
example(e95,f55,negative).
example(e95,f56,negative).
example(e95,f57,negative).
example(e95,f58,negative).
example(e95,f59,negative).
example(e95,f60,negative).
example(e95,f61,negative).
example(e95,f62,negative).
example(e95,f63,negative).
example(e95,f64,negative).
example(e95,f65,negative).
example(e95,f66,negative).
example(e95,f67,negative).
example(e95,f68,negative).
example(e95,f69,negative).
example(e95,f70,negative).
example(e95,f71,negative).
example(e95,f72,negative).
example(e95,f73,negative).
example(e95,f74,negative).
example(e95,f75,negative).
example(e95,f76,positive).
example(e95,f77,negative).
example(e95,f78,positive).
example(e95,f79,negative).
example(e95,f80,negative).
example(e95,f81,negative).
example(e95,f82,negative).
example(e95,f83,negative).
example(e95,f84,negative).
example(e95,f85,negative).
example(e96,f1,negative).
example(e96,f2,negative).
example(e96,f3,negative).
example(e96,f4,negative).
example(e96,f5,negative).
example(e96,f6,negative).
example(e96,f7,positive).
example(e96,f8,negative).
example(e96,f9,positive).
example(e96,f10,negative).
example(e96,f11,negative).
example(e96,f12,negative).
example(e96,f13,negative).
example(e96,f14,negative).
example(e96,f15,negative).
example(e96,f16,negative).
example(e96,f17,negative).
example(e96,f18,negative).
example(e96,f19,negative).
example(e96,f20,negative).
example(e96,f21,negative).
example(e96,f22,negative).
example(e96,f23,negative).
example(e96,f24,negative).
example(e96,f25,negative).
example(e96,f26,negative).
example(e96,f27,negative).
example(e96,f28,negative).
example(e96,f29,negative).
example(e96,f30,negative).
example(e96,f31,negative).
example(e96,f32,negative).
example(e96,f33,negative).
example(e96,f34,negative).
example(e96,f35,negative).
example(e96,f36,negative).
example(e96,f37,negative).
example(e96,f38,negative).
example(e96,f39,negative).
example(e96,f40,negative).
example(e96,f41,negative).
example(e96,f42,negative).
example(e96,f43,negative).
example(e96,f44,negative).
example(e96,f45,negative).
example(e96,f46,negative).
example(e96,f47,negative).
example(e96,f48,negative).
example(e96,f49,negative).
example(e96,f50,negative).
example(e96,f51,negative).
example(e96,f52,negative).
example(e96,f53,negative).
example(e96,f54,negative).
example(e96,f55,negative).
example(e96,f56,negative).
example(e96,f57,negative).
example(e96,f58,negative).
example(e96,f59,negative).
example(e96,f60,negative).
example(e96,f61,negative).
example(e96,f62,negative).
example(e96,f63,positive).
example(e96,f64,negative).
example(e96,f65,negative).
example(e96,f66,positive).
example(e96,f67,negative).
example(e96,f68,negative).
example(e96,f69,positive).
example(e96,f70,negative).
example(e96,f71,negative).
example(e96,f72,negative).
example(e96,f73,negative).
example(e96,f74,positive).
example(e96,f75,negative).
example(e96,f76,negative).
example(e96,f77,negative).
example(e96,f78,positive).
example(e96,f79,negative).
example(e96,f80,negative).
example(e96,f81,negative).
example(e96,f82,negative).
example(e96,f83,negative).
example(e96,f84,negative).
example(e96,f85,negative).
example(e97,f1,negative).
example(e97,f2,negative).
example(e97,f3,negative).
example(e97,f4,negative).
example(e97,f5,negative).
example(e97,f6,negative).
example(e97,f7,positive).
example(e97,f8,negative).
example(e97,f9,negative).
example(e97,f10,positive).
example(e97,f11,negative).
example(e97,f12,negative).
example(e97,f13,negative).
example(e97,f14,negative).
example(e97,f15,negative).
example(e97,f16,negative).
example(e97,f17,negative).
example(e97,f18,negative).
example(e97,f19,negative).
example(e97,f20,negative).
example(e97,f21,negative).
example(e97,f22,negative).
example(e97,f23,negative).
example(e97,f24,negative).
example(e97,f25,negative).
example(e97,f26,negative).
example(e97,f27,negative).
example(e97,f28,negative).
example(e97,f29,negative).
example(e97,f30,negative).
example(e97,f31,negative).
example(e97,f32,negative).
example(e97,f33,negative).
example(e97,f34,negative).
example(e97,f35,negative).
example(e97,f36,negative).
example(e97,f37,negative).
example(e97,f38,negative).
example(e97,f39,negative).
example(e97,f40,negative).
example(e97,f41,negative).
example(e97,f42,negative).
example(e97,f43,negative).
example(e97,f44,negative).
example(e97,f45,negative).
example(e97,f46,negative).
example(e97,f47,negative).
example(e97,f48,negative).
example(e97,f49,negative).
example(e97,f50,negative).
example(e97,f51,negative).
example(e97,f52,negative).
example(e97,f53,negative).
example(e97,f54,negative).
example(e97,f55,negative).
example(e97,f56,negative).
example(e97,f57,negative).
example(e97,f58,negative).
example(e97,f59,negative).
example(e97,f60,negative).
example(e97,f61,negative).
example(e97,f62,negative).
example(e97,f63,positive).
example(e97,f64,negative).
example(e97,f65,negative).
example(e97,f66,positive).
example(e97,f67,negative).
example(e97,f68,positive).
example(e97,f69,negative).
example(e97,f70,negative).
example(e97,f71,negative).
example(e97,f72,negative).
example(e97,f73,negative).
example(e97,f74,positive).
example(e97,f75,negative).
example(e97,f76,negative).
example(e97,f77,negative).
example(e97,f78,positive).
example(e97,f79,negative).
example(e97,f80,negative).
example(e97,f81,negative).
example(e97,f82,negative).
example(e97,f83,negative).
example(e97,f84,negative).
example(e97,f85,negative).
example(e98,f1,negative).
example(e98,f2,negative).
example(e98,f3,positive).
example(e98,f4,negative).
example(e98,f5,negative).
example(e98,f6,negative).
example(e98,f7,negative).
example(e98,f8,negative).
example(e98,f9,negative).
example(e98,f10,positive).
example(e98,f11,negative).
example(e98,f12,positive).
example(e98,f13,negative).
example(e98,f14,negative).
example(e98,f15,negative).
example(e98,f16,negative).
example(e98,f17,negative).
example(e98,f18,negative).
example(e98,f19,negative).
example(e98,f20,negative).
example(e98,f21,negative).
example(e98,f22,negative).
example(e98,f23,negative).
example(e98,f24,negative).
example(e98,f25,negative).
example(e98,f26,negative).
example(e98,f27,negative).
example(e98,f28,negative).
example(e98,f29,negative).
example(e98,f30,negative).
example(e98,f31,negative).
example(e98,f32,negative).
example(e98,f33,negative).
example(e98,f34,negative).
example(e98,f35,negative).
example(e98,f36,negative).
example(e98,f37,negative).
example(e98,f38,negative).
example(e98,f39,negative).
example(e98,f40,negative).
example(e98,f41,negative).
example(e98,f42,negative).
example(e98,f43,negative).
example(e98,f44,negative).
example(e98,f45,negative).
example(e98,f46,negative).
example(e98,f47,negative).
example(e98,f48,negative).
example(e98,f49,negative).
example(e98,f50,negative).
example(e98,f51,negative).
example(e98,f52,negative).
example(e98,f53,negative).
example(e98,f54,negative).
example(e98,f55,negative).
example(e98,f56,negative).
example(e98,f57,negative).
example(e98,f58,negative).
example(e98,f59,negative).
example(e98,f60,negative).
example(e98,f61,negative).
example(e98,f62,negative).
example(e98,f63,negative).
example(e98,f64,negative).
example(e98,f65,negative).
example(e98,f66,negative).
example(e98,f67,positive).
example(e98,f68,negative).
example(e98,f69,negative).
example(e98,f70,negative).
example(e98,f71,negative).
example(e98,f72,negative).
example(e98,f73,positive).
example(e98,f74,negative).
example(e98,f75,negative).
example(e98,f76,negative).
example(e98,f77,negative).
example(e98,f78,positive).
example(e98,f79,negative).
example(e98,f80,negative).
example(e98,f81,negative).
example(e98,f82,negative).
example(e98,f83,negative).
example(e98,f84,negative).
example(e98,f85,negative).
example(e99,f1,positive).
example(e99,f2,negative).
example(e99,f3,positive).
example(e99,f4,negative).
example(e99,f5,negative).
example(e99,f6,negative).
example(e99,f7,negative).
example(e99,f8,positive).
example(e99,f9,positive).
example(e99,f10,negative).
example(e99,f11,negative).
example(e99,f12,positive).
example(e99,f13,negative).
example(e99,f14,negative).
example(e99,f15,negative).
example(e99,f16,negative).
example(e99,f17,negative).
example(e99,f18,negative).
example(e99,f19,negative).
example(e99,f20,negative).
example(e99,f21,negative).
example(e99,f22,negative).
example(e99,f23,negative).
example(e99,f24,negative).
example(e99,f25,negative).
example(e99,f26,negative).
example(e99,f27,negative).
example(e99,f28,negative).
example(e99,f29,negative).
example(e99,f30,negative).
example(e99,f31,negative).
example(e99,f32,negative).
example(e99,f33,negative).
example(e99,f34,negative).
example(e99,f35,negative).
example(e99,f36,negative).
example(e99,f37,negative).
example(e99,f38,negative).
example(e99,f39,negative).
example(e99,f40,negative).
example(e99,f41,negative).
example(e99,f42,negative).
example(e99,f43,negative).
example(e99,f44,negative).
example(e99,f45,negative).
example(e99,f46,negative).
example(e99,f47,positive).
example(e99,f48,negative).
example(e99,f49,negative).
example(e99,f50,negative).
example(e99,f51,negative).
example(e99,f52,negative).
example(e99,f53,negative).
example(e99,f54,negative).
example(e99,f55,negative).
example(e99,f56,negative).
example(e99,f57,negative).
example(e99,f58,negative).
example(e99,f59,negative).
example(e99,f60,negative).
example(e99,f61,negative).
example(e99,f62,negative).
example(e99,f63,negative).
example(e99,f64,negative).
example(e99,f65,negative).
example(e99,f66,positive).
example(e99,f67,negative).
example(e99,f68,negative).
example(e99,f69,positive).
example(e99,f70,negative).
example(e99,f71,negative).
example(e99,f72,negative).
example(e99,f73,positive).
example(e99,f74,negative).
example(e99,f75,negative).
example(e99,f76,negative).
example(e99,f77,negative).
example(e99,f78,positive).
example(e99,f79,negative).
example(e99,f80,negative).
example(e99,f81,negative).
example(e99,f82,negative).
example(e99,f83,negative).
example(e99,f84,negative).
example(e99,f85,negative).
example(e100,f1,positive).
example(e100,f2,negative).
example(e100,f3,positive).
example(e100,f4,negative).
example(e100,f5,negative).
example(e100,f6,negative).
example(e100,f7,positive).
example(e100,f8,negative).
example(e100,f9,negative).
example(e100,f10,positive).
example(e100,f11,negative).
example(e100,f12,positive).
example(e100,f13,negative).
example(e100,f14,negative).
example(e100,f15,negative).
example(e100,f16,negative).
example(e100,f17,negative).
example(e100,f18,negative).
example(e100,f19,negative).
example(e100,f20,negative).
example(e100,f21,negative).
example(e100,f22,negative).
example(e100,f23,negative).
example(e100,f24,negative).
example(e100,f25,negative).
example(e100,f26,negative).
example(e100,f27,negative).
example(e100,f28,negative).
example(e100,f29,negative).
example(e100,f30,negative).
example(e100,f31,negative).
example(e100,f32,negative).
example(e100,f33,negative).
example(e100,f34,negative).
example(e100,f35,negative).
example(e100,f36,negative).
example(e100,f37,negative).
example(e100,f38,negative).
example(e100,f39,negative).
example(e100,f40,negative).
example(e100,f41,negative).
example(e100,f42,negative).
example(e100,f43,negative).
example(e100,f44,negative).
example(e100,f45,negative).
example(e100,f46,negative).
example(e100,f47,positive).
example(e100,f48,negative).
example(e100,f49,negative).
example(e100,f50,negative).
example(e100,f51,negative).
example(e100,f52,negative).
example(e100,f53,negative).
example(e100,f54,negative).
example(e100,f55,negative).
example(e100,f56,negative).
example(e100,f57,negative).
example(e100,f58,negative).
example(e100,f59,negative).
example(e100,f60,negative).
example(e100,f61,negative).
example(e100,f62,negative).
example(e100,f63,negative).
example(e100,f64,negative).
example(e100,f65,negative).
example(e100,f66,negative).
example(e100,f67,positive).
example(e100,f68,positive).
example(e100,f69,negative).
example(e100,f70,negative).
example(e100,f71,negative).
example(e100,f72,negative).
example(e100,f73,negative).
example(e100,f74,negative).
example(e100,f75,negative).
example(e100,f76,negative).
example(e100,f77,negative).
example(e100,f78,positive).
example(e100,f79,negative).
example(e100,f80,negative).
example(e100,f81,negative).
example(e100,f82,negative).
example(e100,f83,negative).
example(e100,f84,negative).
example(e100,f85,negative).
example(e101,f1,positive).
example(e101,f2,negative).
example(e101,f3,negative).
example(e101,f4,negative).
example(e101,f5,negative).
example(e101,f6,negative).
example(e101,f7,negative).
example(e101,f8,negative).
example(e101,f9,positive).
example(e101,f10,negative).
example(e101,f11,negative).
example(e101,f12,negative).
example(e101,f13,negative).
example(e101,f14,negative).
example(e101,f15,negative).
example(e101,f16,negative).
example(e101,f17,negative).
example(e101,f18,negative).
example(e101,f19,negative).
example(e101,f20,negative).
example(e101,f21,negative).
example(e101,f22,positive).
example(e101,f23,negative).
example(e101,f24,negative).
example(e101,f25,negative).
example(e101,f26,negative).
example(e101,f27,negative).
example(e101,f28,negative).
example(e101,f29,negative).
example(e101,f30,negative).
example(e101,f31,negative).
example(e101,f32,negative).
example(e101,f33,negative).
example(e101,f34,negative).
example(e101,f35,negative).
example(e101,f36,negative).
example(e101,f37,negative).
example(e101,f38,negative).
example(e101,f39,negative).
example(e101,f40,negative).
example(e101,f41,negative).
example(e101,f42,negative).
example(e101,f43,negative).
example(e101,f44,negative).
example(e101,f45,negative).
example(e101,f46,negative).
example(e101,f47,negative).
example(e101,f48,negative).
example(e101,f49,negative).
example(e101,f50,negative).
example(e101,f51,negative).
example(e101,f52,negative).
example(e101,f53,negative).
example(e101,f54,negative).
example(e101,f55,negative).
example(e101,f56,negative).
example(e101,f57,negative).
example(e101,f58,negative).
example(e101,f59,negative).
example(e101,f60,positive).
example(e101,f61,negative).
example(e101,f62,negative).
example(e101,f63,negative).
example(e101,f64,negative).
example(e101,f65,negative).
example(e101,f66,negative).
example(e101,f67,negative).
example(e101,f68,negative).
example(e101,f69,negative).
example(e101,f70,negative).
example(e101,f71,negative).
example(e101,f72,negative).
example(e101,f73,negative).
example(e101,f74,positive).
example(e101,f75,negative).
example(e101,f76,negative).
example(e101,f77,negative).
example(e101,f78,positive).
example(e101,f79,negative).
example(e101,f80,negative).
example(e101,f81,negative).
example(e101,f82,negative).
example(e101,f83,negative).
example(e101,f84,negative).
example(e101,f85,negative).
example(e102,f1,negative).
example(e102,f2,negative).
example(e102,f3,positive).
example(e102,f4,negative).
example(e102,f5,negative).
example(e102,f6,negative).
example(e102,f7,negative).
example(e102,f8,negative).
example(e102,f9,negative).
example(e102,f10,positive).
example(e102,f11,negative).
example(e102,f12,positive).
example(e102,f13,negative).
example(e102,f14,negative).
example(e102,f15,negative).
example(e102,f16,negative).
example(e102,f17,negative).
example(e102,f18,negative).
example(e102,f19,negative).
example(e102,f20,negative).
example(e102,f21,negative).
example(e102,f22,negative).
example(e102,f23,negative).
example(e102,f24,negative).
example(e102,f25,negative).
example(e102,f26,negative).
example(e102,f27,negative).
example(e102,f28,negative).
example(e102,f29,negative).
example(e102,f30,negative).
example(e102,f31,negative).
example(e102,f32,negative).
example(e102,f33,negative).
example(e102,f34,negative).
example(e102,f35,negative).
example(e102,f36,negative).
example(e102,f37,negative).
example(e102,f38,negative).
example(e102,f39,negative).
example(e102,f40,negative).
example(e102,f41,negative).
example(e102,f42,negative).
example(e102,f43,negative).
example(e102,f44,negative).
example(e102,f45,negative).
example(e102,f46,negative).
example(e102,f47,negative).
example(e102,f48,negative).
example(e102,f49,negative).
example(e102,f50,negative).
example(e102,f51,negative).
example(e102,f52,negative).
example(e102,f53,negative).
example(e102,f54,negative).
example(e102,f55,negative).
example(e102,f56,negative).
example(e102,f57,negative).
example(e102,f58,negative).
example(e102,f59,negative).
example(e102,f60,negative).
example(e102,f61,negative).
example(e102,f62,negative).
example(e102,f63,negative).
example(e102,f64,negative).
example(e102,f65,negative).
example(e102,f66,negative).
example(e102,f67,negative).
example(e102,f68,negative).
example(e102,f69,negative).
example(e102,f70,negative).
example(e102,f71,negative).
example(e102,f72,negative).
example(e102,f73,positive).
example(e102,f74,negative).
example(e102,f75,negative).
example(e102,f76,negative).
example(e102,f77,negative).
example(e102,f78,positive).
example(e102,f79,negative).
example(e102,f80,negative).
example(e102,f81,negative).
example(e102,f82,negative).
example(e102,f83,negative).
example(e102,f84,negative).
example(e102,f85,negative).
example(e103,f1,negative).
example(e103,f2,negative).
example(e103,f3,negative).
example(e103,f4,negative).
example(e103,f5,negative).
example(e103,f6,negative).
example(e103,f7,negative).
example(e103,f8,negative).
example(e103,f9,negative).
example(e103,f10,negative).
example(e103,f11,negative).
example(e103,f12,negative).
example(e103,f13,negative).
example(e103,f14,negative).
example(e103,f15,negative).
example(e103,f16,negative).
example(e103,f17,negative).
example(e103,f18,negative).
example(e103,f19,negative).
example(e103,f20,negative).
example(e103,f21,negative).
example(e103,f22,negative).
example(e103,f23,negative).
example(e103,f24,negative).
example(e103,f25,negative).
example(e103,f26,negative).
example(e103,f27,negative).
example(e103,f28,negative).
example(e103,f29,negative).
example(e103,f30,negative).
example(e103,f31,negative).
example(e103,f32,negative).
example(e103,f33,negative).
example(e103,f34,negative).
example(e103,f35,negative).
example(e103,f36,negative).
example(e103,f37,negative).
example(e103,f38,negative).
example(e103,f39,negative).
example(e103,f40,negative).
example(e103,f41,negative).
example(e103,f42,negative).
example(e103,f43,negative).
example(e103,f44,negative).
example(e103,f45,negative).
example(e103,f46,negative).
example(e103,f47,negative).
example(e103,f48,negative).
example(e103,f49,negative).
example(e103,f50,negative).
example(e103,f51,negative).
example(e103,f52,negative).
example(e103,f53,negative).
example(e103,f54,negative).
example(e103,f55,negative).
example(e103,f56,negative).
example(e103,f57,negative).
example(e103,f58,negative).
example(e103,f59,negative).
example(e103,f60,negative).
example(e103,f61,negative).
example(e103,f62,negative).
example(e103,f63,negative).
example(e103,f64,negative).
example(e103,f65,negative).
example(e103,f66,negative).
example(e103,f67,negative).
example(e103,f68,negative).
example(e103,f69,positive).
example(e103,f70,negative).
example(e103,f71,negative).
example(e103,f72,negative).
example(e103,f73,positive).
example(e103,f74,negative).
example(e103,f75,negative).
example(e103,f76,negative).
example(e103,f77,negative).
example(e103,f78,positive).
example(e103,f79,negative).
example(e103,f80,negative).
example(e103,f81,negative).
example(e103,f82,negative).
example(e103,f83,positive).
example(e103,f84,negative).
example(e103,f85,negative).
example(e104,f1,negative).
example(e104,f2,negative).
example(e104,f3,positive).
example(e104,f4,negative).
example(e104,f5,negative).
example(e104,f6,negative).
example(e104,f7,negative).
example(e104,f8,positive).
example(e104,f9,negative).
example(e104,f10,positive).
example(e104,f11,negative).
example(e104,f12,negative).
example(e104,f13,negative).
example(e104,f14,negative).
example(e104,f15,negative).
example(e104,f16,negative).
example(e104,f17,negative).
example(e104,f18,negative).
example(e104,f19,negative).
example(e104,f20,positive).
example(e104,f21,negative).
example(e104,f22,positive).
example(e104,f23,negative).
example(e104,f24,negative).
example(e104,f25,negative).
example(e104,f26,negative).
example(e104,f27,negative).
example(e104,f28,negative).
example(e104,f29,negative).
example(e104,f30,negative).
example(e104,f31,negative).
example(e104,f32,negative).
example(e104,f33,negative).
example(e104,f34,negative).
example(e104,f35,negative).
example(e104,f36,negative).
example(e104,f37,negative).
example(e104,f38,negative).
example(e104,f39,negative).
example(e104,f40,negative).
example(e104,f41,negative).
example(e104,f42,negative).
example(e104,f43,negative).
example(e104,f44,negative).
example(e104,f45,negative).
example(e104,f46,negative).
example(e104,f47,negative).
example(e104,f48,negative).
example(e104,f49,negative).
example(e104,f50,negative).
example(e104,f51,negative).
example(e104,f52,negative).
example(e104,f53,negative).
example(e104,f54,negative).
example(e104,f55,negative).
example(e104,f56,negative).
example(e104,f57,negative).
example(e104,f58,negative).
example(e104,f59,negative).
example(e104,f60,negative).
example(e104,f61,negative).
example(e104,f62,negative).
example(e104,f63,negative).
example(e104,f64,negative).
example(e104,f65,negative).
example(e104,f66,negative).
example(e104,f67,positive).
example(e104,f68,positive).
example(e104,f69,negative).
example(e104,f70,negative).
example(e104,f71,positive).
example(e104,f72,negative).
example(e104,f73,negative).
example(e104,f74,negative).
example(e104,f75,negative).
example(e104,f76,positive).
example(e104,f77,negative).
example(e104,f78,positive).
example(e104,f79,negative).
example(e104,f80,negative).
example(e104,f81,negative).
example(e104,f82,negative).
example(e104,f83,negative).
example(e104,f84,negative).
example(e104,f85,negative).
example(e105,f1,negative).
example(e105,f2,negative).
example(e105,f3,positive).
example(e105,f4,negative).
example(e105,f5,negative).
example(e105,f6,negative).
example(e105,f7,negative).
example(e105,f8,positive).
example(e105,f9,positive).
example(e105,f10,negative).
example(e105,f11,negative).
example(e105,f12,negative).
example(e105,f13,negative).
example(e105,f14,negative).
example(e105,f15,negative).
example(e105,f16,negative).
example(e105,f17,negative).
example(e105,f18,negative).
example(e105,f19,negative).
example(e105,f20,positive).
example(e105,f21,negative).
example(e105,f22,positive).
example(e105,f23,negative).
example(e105,f24,negative).
example(e105,f25,negative).
example(e105,f26,negative).
example(e105,f27,negative).
example(e105,f28,negative).
example(e105,f29,negative).
example(e105,f30,negative).
example(e105,f31,negative).
example(e105,f32,negative).
example(e105,f33,negative).
example(e105,f34,negative).
example(e105,f35,negative).
example(e105,f36,negative).
example(e105,f37,negative).
example(e105,f38,negative).
example(e105,f39,negative).
example(e105,f40,negative).
example(e105,f41,negative).
example(e105,f42,negative).
example(e105,f43,negative).
example(e105,f44,negative).
example(e105,f45,negative).
example(e105,f46,negative).
example(e105,f47,negative).
example(e105,f48,negative).
example(e105,f49,negative).
example(e105,f50,negative).
example(e105,f51,negative).
example(e105,f52,negative).
example(e105,f53,negative).
example(e105,f54,negative).
example(e105,f55,negative).
example(e105,f56,negative).
example(e105,f57,negative).
example(e105,f58,negative).
example(e105,f59,negative).
example(e105,f60,negative).
example(e105,f61,negative).
example(e105,f62,negative).
example(e105,f63,negative).
example(e105,f64,negative).
example(e105,f65,negative).
example(e105,f66,negative).
example(e105,f67,positive).
example(e105,f68,negative).
example(e105,f69,positive).
example(e105,f70,negative).
example(e105,f71,positive).
example(e105,f72,negative).
example(e105,f73,negative).
example(e105,f74,negative).
example(e105,f75,negative).
example(e105,f76,negative).
example(e105,f77,negative).
example(e105,f78,positive).
example(e105,f79,negative).
example(e105,f80,negative).
example(e105,f81,negative).
example(e105,f82,negative).
example(e105,f83,negative).
example(e105,f84,negative).
example(e105,f85,negative).
example(e106,f1,negative).
example(e106,f2,negative).
example(e106,f3,positive).
example(e106,f4,negative).
example(e106,f5,negative).
example(e106,f6,negative).
example(e106,f7,negative).
example(e106,f8,negative).
example(e106,f9,negative).
example(e106,f10,positive).
example(e106,f11,negative).
example(e106,f12,positive).
example(e106,f13,negative).
example(e106,f14,negative).
example(e106,f15,negative).
example(e106,f16,negative).
example(e106,f17,negative).
example(e106,f18,negative).
example(e106,f19,negative).
example(e106,f20,negative).
example(e106,f21,negative).
example(e106,f22,negative).
example(e106,f23,negative).
example(e106,f24,negative).
example(e106,f25,negative).
example(e106,f26,negative).
example(e106,f27,negative).
example(e106,f28,negative).
example(e106,f29,negative).
example(e106,f30,negative).
example(e106,f31,negative).
example(e106,f32,negative).
example(e106,f33,negative).
example(e106,f34,negative).
example(e106,f35,negative).
example(e106,f36,negative).
example(e106,f37,negative).
example(e106,f38,negative).
example(e106,f39,negative).
example(e106,f40,negative).
example(e106,f41,negative).
example(e106,f42,negative).
example(e106,f43,negative).
example(e106,f44,negative).
example(e106,f45,negative).
example(e106,f46,negative).
example(e106,f47,negative).
example(e106,f48,negative).
example(e106,f49,negative).
example(e106,f50,negative).
example(e106,f51,negative).
example(e106,f52,negative).
example(e106,f53,negative).
example(e106,f54,positive).
example(e106,f55,negative).
example(e106,f56,negative).
example(e106,f57,negative).
example(e106,f58,negative).
example(e106,f59,negative).
example(e106,f60,negative).
example(e106,f61,negative).
example(e106,f62,negative).
example(e106,f63,negative).
example(e106,f64,negative).
example(e106,f65,negative).
example(e106,f66,negative).
example(e106,f67,negative).
example(e106,f68,negative).
example(e106,f69,negative).
example(e106,f70,negative).
example(e106,f71,negative).
example(e106,f72,negative).
example(e106,f73,positive).
example(e106,f74,negative).
example(e106,f75,negative).
example(e106,f76,negative).
example(e106,f77,negative).
example(e106,f78,positive).
example(e106,f79,negative).
example(e106,f80,negative).
example(e106,f81,negative).
example(e106,f82,negative).
example(e106,f83,negative).
example(e106,f84,negative).
example(e106,f85,negative).
example(e107,f1,negative).
example(e107,f2,positive).
example(e107,f3,negative).
example(e107,f4,negative).
example(e107,f5,negative).
example(e107,f6,positive).
example(e107,f7,negative).
example(e107,f8,negative).
example(e107,f9,negative).
example(e107,f10,negative).
example(e107,f11,negative).
example(e107,f12,negative).
example(e107,f13,negative).
example(e107,f14,positive).
example(e107,f15,negative).
example(e107,f16,negative).
example(e107,f17,negative).
example(e107,f18,negative).
example(e107,f19,negative).
example(e107,f20,negative).
example(e107,f21,negative).
example(e107,f22,negative).
example(e107,f23,negative).
example(e107,f24,negative).
example(e107,f25,negative).
example(e107,f26,negative).
example(e107,f27,negative).
example(e107,f28,negative).
example(e107,f29,negative).
example(e107,f30,negative).
example(e107,f31,negative).
example(e107,f32,negative).
example(e107,f33,negative).
example(e107,f34,negative).
example(e107,f35,negative).
example(e107,f36,negative).
example(e107,f37,negative).
example(e107,f38,negative).
example(e107,f39,negative).
example(e107,f40,negative).
example(e107,f41,negative).
example(e107,f42,negative).
example(e107,f43,negative).
example(e107,f44,negative).
example(e107,f45,negative).
example(e107,f46,negative).
example(e107,f47,negative).
example(e107,f48,negative).
example(e107,f49,negative).
example(e107,f50,negative).
example(e107,f51,negative).
example(e107,f52,negative).
example(e107,f53,negative).
example(e107,f54,negative).
example(e107,f55,negative).
example(e107,f56,negative).
example(e107,f57,negative).
example(e107,f58,negative).
example(e107,f59,negative).
example(e107,f60,negative).
example(e107,f61,negative).
example(e107,f62,negative).
example(e107,f63,negative).
example(e107,f64,negative).
example(e107,f65,negative).
example(e107,f66,negative).
example(e107,f67,negative).
example(e107,f68,negative).
example(e107,f69,negative).
example(e107,f70,negative).
example(e107,f71,negative).
example(e107,f72,negative).
example(e107,f73,negative).
example(e107,f74,negative).
example(e107,f75,negative).
example(e107,f76,positive).
example(e107,f77,negative).
example(e107,f78,positive).
example(e107,f79,negative).
example(e107,f80,negative).
example(e107,f81,positive).
example(e107,f82,negative).
example(e107,f83,negative).
example(e107,f84,negative).
example(e107,f85,negative).
example(e108,f1,negative).
example(e108,f2,negative).
example(e108,f3,negative).
example(e108,f4,negative).
example(e108,f5,negative).
example(e108,f6,positive).
example(e108,f7,negative).
example(e108,f8,negative).
example(e108,f9,negative).
example(e108,f10,negative).
example(e108,f11,negative).
example(e108,f12,negative).
example(e108,f13,negative).
example(e108,f14,negative).
example(e108,f15,negative).
example(e108,f16,negative).
example(e108,f17,negative).
example(e108,f18,negative).
example(e108,f19,negative).
example(e108,f20,negative).
example(e108,f21,negative).
example(e108,f22,negative).
example(e108,f23,negative).
example(e108,f24,negative).
example(e108,f25,negative).
example(e108,f26,negative).
example(e108,f27,negative).
example(e108,f28,negative).
example(e108,f29,negative).
example(e108,f30,negative).
example(e108,f31,negative).
example(e108,f32,negative).
example(e108,f33,negative).
example(e108,f34,negative).
example(e108,f35,negative).
example(e108,f36,negative).
example(e108,f37,negative).
example(e108,f38,negative).
example(e108,f39,negative).
example(e108,f40,negative).
example(e108,f41,negative).
example(e108,f42,negative).
example(e108,f43,negative).
example(e108,f44,negative).
example(e108,f45,negative).
example(e108,f46,negative).
example(e108,f47,negative).
example(e108,f48,negative).
example(e108,f49,negative).
example(e108,f50,negative).
example(e108,f51,negative).
example(e108,f52,negative).
example(e108,f53,negative).
example(e108,f54,negative).
example(e108,f55,negative).
example(e108,f56,negative).
example(e108,f57,negative).
example(e108,f58,negative).
example(e108,f59,negative).
example(e108,f60,negative).
example(e108,f61,negative).
example(e108,f62,negative).
example(e108,f63,negative).
example(e108,f64,negative).
example(e108,f65,negative).
example(e108,f66,negative).
example(e108,f67,negative).
example(e108,f68,negative).
example(e108,f69,negative).
example(e108,f70,negative).
example(e108,f71,negative).
example(e108,f72,negative).
example(e108,f73,positive).
example(e108,f74,negative).
example(e108,f75,negative).
example(e108,f76,negative).
example(e108,f77,negative).
example(e108,f78,positive).
example(e108,f79,negative).
example(e108,f80,positive).
example(e108,f81,negative).
example(e108,f82,negative).
example(e108,f83,negative).
example(e108,f84,negative).
example(e108,f85,negative).
example(e109,f1,negative).
example(e109,f2,positive).
example(e109,f3,negative).
example(e109,f4,negative).
example(e109,f5,negative).
example(e109,f6,positive).
example(e109,f7,negative).
example(e109,f8,negative).
example(e109,f9,negative).
example(e109,f10,negative).
example(e109,f11,negative).
example(e109,f12,negative).
example(e109,f13,negative).
example(e109,f14,negative).
example(e109,f15,negative).
example(e109,f16,negative).
example(e109,f17,negative).
example(e109,f18,negative).
example(e109,f19,negative).
example(e109,f20,negative).
example(e109,f21,negative).
example(e109,f22,negative).
example(e109,f23,negative).
example(e109,f24,negative).
example(e109,f25,negative).
example(e109,f26,negative).
example(e109,f27,negative).
example(e109,f28,negative).
example(e109,f29,negative).
example(e109,f30,negative).
example(e109,f31,negative).
example(e109,f32,negative).
example(e109,f33,negative).
example(e109,f34,negative).
example(e109,f35,negative).
example(e109,f36,negative).
example(e109,f37,negative).
example(e109,f38,negative).
example(e109,f39,negative).
example(e109,f40,negative).
example(e109,f41,negative).
example(e109,f42,negative).
example(e109,f43,negative).
example(e109,f44,negative).
example(e109,f45,negative).
example(e109,f46,negative).
example(e109,f47,negative).
example(e109,f48,negative).
example(e109,f49,negative).
example(e109,f50,negative).
example(e109,f51,negative).
example(e109,f52,negative).
example(e109,f53,negative).
example(e109,f54,negative).
example(e109,f55,negative).
example(e109,f56,negative).
example(e109,f57,negative).
example(e109,f58,negative).
example(e109,f59,negative).
example(e109,f60,negative).
example(e109,f61,negative).
example(e109,f62,negative).
example(e109,f63,negative).
example(e109,f64,negative).
example(e109,f65,negative).
example(e109,f66,negative).
example(e109,f67,negative).
example(e109,f68,negative).
example(e109,f69,negative).
example(e109,f70,negative).
example(e109,f71,negative).
example(e109,f72,negative).
example(e109,f73,negative).
example(e109,f74,negative).
example(e109,f75,negative).
example(e109,f76,positive).
example(e109,f77,negative).
example(e109,f78,positive).
example(e109,f79,negative).
example(e109,f80,positive).
example(e109,f81,negative).
example(e109,f82,negative).
example(e109,f83,negative).
example(e109,f84,negative).
example(e109,f85,negative).
example(e110,f1,positive).
example(e110,f2,negative).
example(e110,f3,negative).
example(e110,f4,negative).
example(e110,f5,negative).
example(e110,f6,negative).
example(e110,f7,negative).
example(e110,f8,positive).
example(e110,f9,negative).
example(e110,f10,positive).
example(e110,f11,negative).
example(e110,f12,negative).
example(e110,f13,negative).
example(e110,f14,negative).
example(e110,f15,negative).
example(e110,f16,negative).
example(e110,f17,negative).
example(e110,f18,negative).
example(e110,f19,negative).
example(e110,f20,negative).
example(e110,f21,negative).
example(e110,f22,negative).
example(e110,f23,negative).
example(e110,f24,negative).
example(e110,f25,negative).
example(e110,f26,negative).
example(e110,f27,negative).
example(e110,f28,negative).
example(e110,f29,negative).
example(e110,f30,negative).
example(e110,f31,negative).
example(e110,f32,negative).
example(e110,f33,negative).
example(e110,f34,negative).
example(e110,f35,negative).
example(e110,f36,negative).
example(e110,f37,negative).
example(e110,f38,negative).
example(e110,f39,negative).
example(e110,f40,negative).
example(e110,f41,negative).
example(e110,f42,negative).
example(e110,f43,negative).
example(e110,f44,negative).
example(e110,f45,negative).
example(e110,f46,negative).
example(e110,f47,negative).
example(e110,f48,negative).
example(e110,f49,negative).
example(e110,f50,negative).
example(e110,f51,negative).
example(e110,f52,negative).
example(e110,f53,negative).
example(e110,f54,negative).
example(e110,f55,negative).
example(e110,f56,negative).
example(e110,f57,negative).
example(e110,f58,negative).
example(e110,f59,negative).
example(e110,f60,negative).
example(e110,f61,negative).
example(e110,f62,negative).
example(e110,f63,negative).
example(e110,f64,negative).
example(e110,f65,negative).
example(e110,f66,negative).
example(e110,f67,positive).
example(e110,f68,negative).
example(e110,f69,positive).
example(e110,f70,negative).
example(e110,f71,negative).
example(e110,f72,negative).
example(e110,f73,positive).
example(e110,f74,negative).
example(e110,f75,negative).
example(e110,f76,negative).
example(e110,f77,negative).
example(e110,f78,positive).
example(e110,f79,negative).
example(e110,f80,negative).
example(e110,f81,negative).
example(e110,f82,negative).
example(e110,f83,negative).
example(e110,f84,negative).
example(e110,f85,negative).
example(e111,f1,negative).
example(e111,f2,negative).
example(e111,f3,negative).
example(e111,f4,negative).
example(e111,f5,negative).
example(e111,f6,negative).
example(e111,f7,positive).
example(e111,f8,negative).
example(e111,f9,negative).
example(e111,f10,positive).
example(e111,f11,negative).
example(e111,f12,negative).
example(e111,f13,negative).
example(e111,f14,positive).
example(e111,f15,negative).
example(e111,f16,negative).
example(e111,f17,negative).
example(e111,f18,negative).
example(e111,f19,negative).
example(e111,f20,negative).
example(e111,f21,negative).
example(e111,f22,positive).
example(e111,f23,negative).
example(e111,f24,negative).
example(e111,f25,negative).
example(e111,f26,negative).
example(e111,f27,negative).
example(e111,f28,negative).
example(e111,f29,negative).
example(e111,f30,negative).
example(e111,f31,negative).
example(e111,f32,negative).
example(e111,f33,negative).
example(e111,f34,negative).
example(e111,f35,negative).
example(e111,f36,negative).
example(e111,f37,negative).
example(e111,f38,negative).
example(e111,f39,negative).
example(e111,f40,negative).
example(e111,f41,negative).
example(e111,f42,negative).
example(e111,f43,negative).
example(e111,f44,negative).
example(e111,f45,negative).
example(e111,f46,negative).
example(e111,f47,negative).
example(e111,f48,negative).
example(e111,f49,negative).
example(e111,f50,negative).
example(e111,f51,negative).
example(e111,f52,negative).
example(e111,f53,negative).
example(e111,f54,negative).
example(e111,f55,negative).
example(e111,f56,negative).
example(e111,f57,negative).
example(e111,f58,negative).
example(e111,f59,negative).
example(e111,f60,negative).
example(e111,f61,negative).
example(e111,f62,negative).
example(e111,f63,negative).
example(e111,f64,negative).
example(e111,f65,negative).
example(e111,f66,positive).
example(e111,f67,negative).
example(e111,f68,negative).
example(e111,f69,positive).
example(e111,f70,negative).
example(e111,f71,negative).
example(e111,f72,negative).
example(e111,f73,negative).
example(e111,f74,negative).
example(e111,f75,negative).
example(e111,f76,positive).
example(e111,f77,negative).
example(e111,f78,positive).
example(e111,f79,negative).
example(e111,f80,negative).
example(e111,f81,negative).
example(e111,f82,positive).
example(e111,f83,negative).
example(e111,f84,negative).
example(e111,f85,negative).
example(e112,f1,negative).
example(e112,f2,negative).
example(e112,f3,negative).
example(e112,f4,negative).
example(e112,f5,negative).
example(e112,f6,negative).
example(e112,f7,positive).
example(e112,f8,negative).
example(e112,f9,negative).
example(e112,f10,positive).
example(e112,f11,negative).
example(e112,f12,negative).
example(e112,f13,negative).
example(e112,f14,positive).
example(e112,f15,negative).
example(e112,f16,negative).
example(e112,f17,negative).
example(e112,f18,negative).
example(e112,f19,negative).
example(e112,f20,negative).
example(e112,f21,negative).
example(e112,f22,positive).
example(e112,f23,negative).
example(e112,f24,negative).
example(e112,f25,negative).
example(e112,f26,negative).
example(e112,f27,negative).
example(e112,f28,negative).
example(e112,f29,negative).
example(e112,f30,negative).
example(e112,f31,negative).
example(e112,f32,negative).
example(e112,f33,negative).
example(e112,f34,negative).
example(e112,f35,negative).
example(e112,f36,negative).
example(e112,f37,negative).
example(e112,f38,negative).
example(e112,f39,negative).
example(e112,f40,negative).
example(e112,f41,negative).
example(e112,f42,negative).
example(e112,f43,negative).
example(e112,f44,negative).
example(e112,f45,negative).
example(e112,f46,negative).
example(e112,f47,negative).
example(e112,f48,negative).
example(e112,f49,negative).
example(e112,f50,negative).
example(e112,f51,negative).
example(e112,f52,negative).
example(e112,f53,negative).
example(e112,f54,negative).
example(e112,f55,negative).
example(e112,f56,negative).
example(e112,f57,negative).
example(e112,f58,negative).
example(e112,f59,negative).
example(e112,f60,negative).
example(e112,f61,negative).
example(e112,f62,negative).
example(e112,f63,negative).
example(e112,f64,negative).
example(e112,f65,negative).
example(e112,f66,positive).
example(e112,f67,negative).
example(e112,f68,negative).
example(e112,f69,positive).
example(e112,f70,negative).
example(e112,f71,negative).
example(e112,f72,negative).
example(e112,f73,negative).
example(e112,f74,positive).
example(e112,f75,negative).
example(e112,f76,negative).
example(e112,f77,negative).
example(e112,f78,positive).
example(e112,f79,negative).
example(e112,f80,negative).
example(e112,f81,negative).
example(e112,f82,positive).
example(e112,f83,negative).
example(e112,f84,negative).
example(e112,f85,negative).
example(e113,f1,negative).
example(e113,f2,negative).
example(e113,f3,negative).
example(e113,f4,negative).
example(e113,f5,negative).
example(e113,f6,positive).
example(e113,f7,negative).
example(e113,f8,negative).
example(e113,f9,negative).
example(e113,f10,negative).
example(e113,f11,negative).
example(e113,f12,negative).
example(e113,f13,negative).
example(e113,f14,negative).
example(e113,f15,negative).
example(e113,f16,negative).
example(e113,f17,negative).
example(e113,f18,negative).
example(e113,f19,negative).
example(e113,f20,negative).
example(e113,f21,negative).
example(e113,f22,negative).
example(e113,f23,negative).
example(e113,f24,negative).
example(e113,f25,negative).
example(e113,f26,negative).
example(e113,f27,negative).
example(e113,f28,negative).
example(e113,f29,negative).
example(e113,f30,negative).
example(e113,f31,negative).
example(e113,f32,negative).
example(e113,f33,negative).
example(e113,f34,negative).
example(e113,f35,negative).
example(e113,f36,negative).
example(e113,f37,negative).
example(e113,f38,negative).
example(e113,f39,negative).
example(e113,f40,negative).
example(e113,f41,negative).
example(e113,f42,negative).
example(e113,f43,negative).
example(e113,f44,negative).
example(e113,f45,negative).
example(e113,f46,negative).
example(e113,f47,negative).
example(e113,f48,negative).
example(e113,f49,negative).
example(e113,f50,negative).
example(e113,f51,negative).
example(e113,f52,negative).
example(e113,f53,negative).
example(e113,f54,negative).
example(e113,f55,negative).
example(e113,f56,negative).
example(e113,f57,negative).
example(e113,f58,negative).
example(e113,f59,negative).
example(e113,f60,negative).
example(e113,f61,negative).
example(e113,f62,negative).
example(e113,f63,negative).
example(e113,f64,negative).
example(e113,f65,negative).
example(e113,f66,negative).
example(e113,f67,negative).
example(e113,f68,positive).
example(e113,f69,negative).
example(e113,f70,negative).
example(e113,f71,negative).
example(e113,f72,negative).
example(e113,f73,positive).
example(e113,f74,negative).
example(e113,f75,negative).
example(e113,f76,negative).
example(e113,f77,negative).
example(e113,f78,positive).
example(e113,f79,negative).
example(e113,f80,negative).
example(e113,f81,positive).
example(e113,f82,negative).
example(e113,f83,negative).
example(e113,f84,negative).
example(e113,f85,negative).
example(e114,f1,negative).
example(e114,f2,negative).
example(e114,f3,positive).
example(e114,f4,negative).
example(e114,f5,negative).
example(e114,f6,negative).
example(e114,f7,negative).
example(e114,f8,negative).
example(e114,f9,positive).
example(e114,f10,negative).
example(e114,f11,negative).
example(e114,f12,negative).
example(e114,f13,negative).
example(e114,f14,negative).
example(e114,f15,negative).
example(e114,f16,negative).
example(e114,f17,negative).
example(e114,f18,negative).
example(e114,f19,negative).
example(e114,f20,negative).
example(e114,f21,negative).
example(e114,f22,negative).
example(e114,f23,negative).
example(e114,f24,negative).
example(e114,f25,negative).
example(e114,f26,negative).
example(e114,f27,negative).
example(e114,f28,negative).
example(e114,f29,negative).
example(e114,f30,negative).
example(e114,f31,negative).
example(e114,f32,negative).
example(e114,f33,negative).
example(e114,f34,negative).
example(e114,f35,negative).
example(e114,f36,negative).
example(e114,f37,negative).
example(e114,f38,negative).
example(e114,f39,negative).
example(e114,f40,negative).
example(e114,f41,negative).
example(e114,f42,negative).
example(e114,f43,negative).
example(e114,f44,negative).
example(e114,f45,negative).
example(e114,f46,negative).
example(e114,f47,negative).
example(e114,f48,negative).
example(e114,f49,negative).
example(e114,f50,negative).
example(e114,f51,negative).
example(e114,f52,negative).
example(e114,f53,negative).
example(e114,f54,negative).
example(e114,f55,negative).
example(e114,f56,negative).
example(e114,f57,negative).
example(e114,f58,negative).
example(e114,f59,negative).
example(e114,f60,negative).
example(e114,f61,negative).
example(e114,f62,negative).
example(e114,f63,negative).
example(e114,f64,negative).
example(e114,f65,negative).
example(e114,f66,negative).
example(e114,f67,negative).
example(e114,f68,negative).
example(e114,f69,negative).
example(e114,f70,negative).
example(e114,f71,negative).
example(e114,f72,negative).
example(e114,f73,positive).
example(e114,f74,negative).
example(e114,f75,negative).
example(e114,f76,negative).
example(e114,f77,negative).
example(e114,f78,positive).
example(e114,f79,negative).
example(e114,f80,negative).
example(e114,f81,negative).
example(e114,f82,positive).
example(e114,f83,negative).
example(e114,f84,negative).
example(e114,f85,negative).
example(e115,f1,negative).
example(e115,f2,negative).
example(e115,f3,negative).
example(e115,f4,negative).
example(e115,f5,negative).
example(e115,f6,negative).
example(e115,f7,positive).
example(e115,f8,negative).
example(e115,f9,negative).
example(e115,f10,positive).
example(e115,f11,negative).
example(e115,f12,negative).
example(e115,f13,negative).
example(e115,f14,negative).
example(e115,f15,negative).
example(e115,f16,negative).
example(e115,f17,positive).
example(e115,f18,positive).
example(e115,f19,negative).
example(e115,f20,negative).
example(e115,f21,negative).
example(e115,f22,negative).
example(e115,f23,negative).
example(e115,f24,negative).
example(e115,f25,positive).
example(e115,f26,negative).
example(e115,f27,negative).
example(e115,f28,negative).
example(e115,f29,negative).
example(e115,f30,negative).
example(e115,f31,negative).
example(e115,f32,negative).
example(e115,f33,negative).
example(e115,f34,negative).
example(e115,f35,negative).
example(e115,f36,negative).
example(e115,f37,negative).
example(e115,f38,negative).
example(e115,f39,negative).
example(e115,f40,negative).
example(e115,f41,negative).
example(e115,f42,negative).
example(e115,f43,negative).
example(e115,f44,negative).
example(e115,f45,negative).
example(e115,f46,negative).
example(e115,f47,negative).
example(e115,f48,negative).
example(e115,f49,negative).
example(e115,f50,negative).
example(e115,f51,negative).
example(e115,f52,negative).
example(e115,f53,negative).
example(e115,f54,negative).
example(e115,f55,negative).
example(e115,f56,negative).
example(e115,f57,negative).
example(e115,f58,negative).
example(e115,f59,negative).
example(e115,f60,negative).
example(e115,f61,negative).
example(e115,f62,negative).
example(e115,f63,negative).
example(e115,f64,negative).
example(e115,f65,negative).
example(e115,f66,negative).
example(e115,f67,positive).
example(e115,f68,positive).
example(e115,f69,negative).
example(e115,f70,negative).
example(e115,f71,negative).
example(e115,f72,negative).
example(e115,f73,negative).
example(e115,f74,negative).
example(e115,f75,negative).
example(e115,f76,negative).
example(e115,f77,negative).
example(e115,f78,negative).
example(e115,f79,negative).
example(e115,f80,negative).
example(e115,f81,negative).
example(e115,f82,negative).
example(e115,f83,negative).
example(e115,f84,negative).
example(e115,f85,negative).
example(e116,f1,negative).
example(e116,f2,negative).
example(e116,f3,positive).
example(e116,f4,negative).
example(e116,f5,negative).
example(e116,f6,negative).
example(e116,f7,negative).
example(e116,f8,positive).
example(e116,f9,positive).
example(e116,f10,negative).
example(e116,f11,negative).
example(e116,f12,negative).
example(e116,f13,negative).
example(e116,f14,negative).
example(e116,f15,negative).
example(e116,f16,negative).
example(e116,f17,negative).
example(e116,f18,negative).
example(e116,f19,negative).
example(e116,f20,negative).
example(e116,f21,negative).
example(e116,f22,negative).
example(e116,f23,negative).
example(e116,f24,negative).
example(e116,f25,negative).
example(e116,f26,negative).
example(e116,f27,negative).
example(e116,f28,negative).
example(e116,f29,negative).
example(e116,f30,negative).
example(e116,f31,negative).
example(e116,f32,negative).
example(e116,f33,negative).
example(e116,f34,negative).
example(e116,f35,negative).
example(e116,f36,negative).
example(e116,f37,negative).
example(e116,f38,negative).
example(e116,f39,negative).
example(e116,f40,negative).
example(e116,f41,negative).
example(e116,f42,negative).
example(e116,f43,negative).
example(e116,f44,negative).
example(e116,f45,negative).
example(e116,f46,negative).
example(e116,f47,negative).
example(e116,f48,negative).
example(e116,f49,negative).
example(e116,f50,negative).
example(e116,f51,negative).
example(e116,f52,negative).
example(e116,f53,negative).
example(e116,f54,negative).
example(e116,f55,negative).
example(e116,f56,negative).
example(e116,f57,negative).
example(e116,f58,negative).
example(e116,f59,negative).
example(e116,f60,negative).
example(e116,f61,negative).
example(e116,f62,negative).
example(e116,f63,negative).
example(e116,f64,negative).
example(e116,f65,negative).
example(e116,f66,positive).
example(e116,f67,negative).
example(e116,f68,negative).
example(e116,f69,positive).
example(e116,f70,negative).
example(e116,f71,negative).
example(e116,f72,negative).
example(e116,f73,negative).
example(e116,f74,negative).
example(e116,f75,negative).
example(e116,f76,positive).
example(e116,f77,negative).
example(e116,f78,positive).
example(e116,f79,negative).
example(e116,f80,negative).
example(e116,f81,negative).
example(e116,f82,negative).
example(e116,f83,negative).
example(e116,f84,negative).
example(e116,f85,negative).
example(e117,f1,negative).
example(e117,f2,negative).
example(e117,f3,positive).
example(e117,f4,negative).
example(e117,f5,negative).
example(e117,f6,negative).
example(e117,f7,negative).
example(e117,f8,positive).
example(e117,f9,negative).
example(e117,f10,positive).
example(e117,f11,negative).
example(e117,f12,negative).
example(e117,f13,negative).
example(e117,f14,negative).
example(e117,f15,negative).
example(e117,f16,negative).
example(e117,f17,positive).
example(e117,f18,negative).
example(e117,f19,negative).
example(e117,f20,negative).
example(e117,f21,positive).
example(e117,f22,negative).
example(e117,f23,negative).
example(e117,f24,negative).
example(e117,f25,positive).
example(e117,f26,negative).
example(e117,f27,negative).
example(e117,f28,negative).
example(e117,f29,negative).
example(e117,f30,negative).
example(e117,f31,negative).
example(e117,f32,negative).
example(e117,f33,negative).
example(e117,f34,negative).
example(e117,f35,negative).
example(e117,f36,negative).
example(e117,f37,negative).
example(e117,f38,negative).
example(e117,f39,negative).
example(e117,f40,negative).
example(e117,f41,negative).
example(e117,f42,negative).
example(e117,f43,negative).
example(e117,f44,negative).
example(e117,f45,negative).
example(e117,f46,negative).
example(e117,f47,negative).
example(e117,f48,negative).
example(e117,f49,negative).
example(e117,f50,negative).
example(e117,f51,negative).
example(e117,f52,negative).
example(e117,f53,negative).
example(e117,f54,negative).
example(e117,f55,negative).
example(e117,f56,negative).
example(e117,f57,negative).
example(e117,f58,negative).
example(e117,f59,negative).
example(e117,f60,negative).
example(e117,f61,negative).
example(e117,f62,negative).
example(e117,f63,negative).
example(e117,f64,negative).
example(e117,f65,negative).
example(e117,f66,negative).
example(e117,f67,positive).
example(e117,f68,negative).
example(e117,f69,positive).
example(e117,f70,negative).
example(e117,f71,negative).
example(e117,f72,negative).
example(e117,f73,positive).
example(e117,f74,negative).
example(e117,f75,negative).
example(e117,f76,negative).
example(e117,f77,negative).
example(e117,f78,negative).
example(e117,f79,negative).
example(e117,f80,negative).
example(e117,f81,negative).
example(e117,f82,negative).
example(e117,f83,negative).
example(e117,f84,negative).
example(e117,f85,positive).
example(e118,f1,negative).
example(e118,f2,negative).
example(e118,f3,negative).
example(e118,f4,negative).
example(e118,f5,negative).
example(e118,f6,negative).
example(e118,f7,negative).
example(e118,f8,positive).
example(e118,f9,negative).
example(e118,f10,positive).
example(e118,f11,negative).
example(e118,f12,negative).
example(e118,f13,negative).
example(e118,f14,negative).
example(e118,f15,negative).
example(e118,f16,negative).
example(e118,f17,positive).
example(e118,f18,positive).
example(e118,f19,negative).
example(e118,f20,negative).
example(e118,f21,negative).
example(e118,f22,negative).
example(e118,f23,negative).
example(e118,f24,negative).
example(e118,f25,negative).
example(e118,f26,positive).
example(e118,f27,negative).
example(e118,f28,negative).
example(e118,f29,negative).
example(e118,f30,negative).
example(e118,f31,negative).
example(e118,f32,negative).
example(e118,f33,negative).
example(e118,f34,negative).
example(e118,f35,negative).
example(e118,f36,negative).
example(e118,f37,negative).
example(e118,f38,negative).
example(e118,f39,negative).
example(e118,f40,negative).
example(e118,f41,negative).
example(e118,f42,negative).
example(e118,f43,negative).
example(e118,f44,negative).
example(e118,f45,negative).
example(e118,f46,negative).
example(e118,f47,positive).
example(e118,f48,negative).
example(e118,f49,negative).
example(e118,f50,positive).
example(e118,f51,negative).
example(e118,f52,negative).
example(e118,f53,negative).
example(e118,f54,negative).
example(e118,f55,negative).
example(e118,f56,negative).
example(e118,f57,negative).
example(e118,f58,negative).
example(e118,f59,negative).
example(e118,f60,negative).
example(e118,f61,negative).
example(e118,f62,negative).
example(e118,f63,negative).
example(e118,f64,negative).
example(e118,f65,negative).
example(e118,f66,negative).
example(e118,f67,positive).
example(e118,f68,negative).
example(e118,f69,positive).
example(e118,f70,negative).
example(e118,f71,negative).
example(e118,f72,negative).
example(e118,f73,positive).
example(e118,f74,negative).
example(e118,f75,negative).
example(e118,f76,negative).
example(e118,f77,negative).
example(e118,f78,negative).
example(e118,f79,negative).
example(e118,f80,negative).
example(e118,f81,negative).
example(e118,f82,negative).
example(e118,f83,negative).
example(e118,f84,negative).
example(e118,f85,negative).
example(e119,f1,negative).
example(e119,f2,negative).
example(e119,f3,positive).
example(e119,f4,negative).
example(e119,f5,negative).
example(e119,f6,negative).
example(e119,f7,negative).
example(e119,f8,positive).
example(e119,f9,negative).
example(e119,f10,positive).
example(e119,f11,negative).
example(e119,f12,negative).
example(e119,f13,negative).
example(e119,f14,negative).
example(e119,f15,negative).
example(e119,f16,negative).
example(e119,f17,positive).
example(e119,f18,negative).
example(e119,f19,negative).
example(e119,f20,negative).
example(e119,f21,negative).
example(e119,f22,negative).
example(e119,f23,negative).
example(e119,f24,negative).
example(e119,f25,negative).
example(e119,f26,positive).
example(e119,f27,negative).
example(e119,f28,negative).
example(e119,f29,negative).
example(e119,f30,negative).
example(e119,f31,negative).
example(e119,f32,negative).
example(e119,f33,negative).
example(e119,f34,negative).
example(e119,f35,negative).
example(e119,f36,negative).
example(e119,f37,negative).
example(e119,f38,negative).
example(e119,f39,negative).
example(e119,f40,negative).
example(e119,f41,negative).
example(e119,f42,negative).
example(e119,f43,negative).
example(e119,f44,negative).
example(e119,f45,negative).
example(e119,f46,negative).
example(e119,f47,positive).
example(e119,f48,negative).
example(e119,f49,negative).
example(e119,f50,negative).
example(e119,f51,negative).
example(e119,f52,negative).
example(e119,f53,negative).
example(e119,f54,negative).
example(e119,f55,negative).
example(e119,f56,negative).
example(e119,f57,negative).
example(e119,f58,negative).
example(e119,f59,negative).
example(e119,f60,negative).
example(e119,f61,negative).
example(e119,f62,negative).
example(e119,f63,negative).
example(e119,f64,negative).
example(e119,f65,negative).
example(e119,f66,negative).
example(e119,f67,positive).
example(e119,f68,negative).
example(e119,f69,positive).
example(e119,f70,negative).
example(e119,f71,negative).
example(e119,f72,negative).
example(e119,f73,positive).
example(e119,f74,negative).
example(e119,f75,negative).
example(e119,f76,negative).
example(e119,f77,negative).
example(e119,f78,negative).
example(e119,f79,negative).
example(e119,f80,negative).
example(e119,f81,negative).
example(e119,f82,negative).
example(e119,f83,negative).
example(e119,f84,negative).
example(e119,f85,negative).
example(e120,f1,negative).
example(e120,f2,negative).
example(e120,f3,positive).
example(e120,f4,negative).
example(e120,f5,negative).
example(e120,f6,negative).
example(e120,f7,negative).
example(e120,f8,positive).
example(e120,f9,negative).
example(e120,f10,positive).
example(e120,f11,negative).
example(e120,f12,negative).
example(e120,f13,negative).
example(e120,f14,negative).
example(e120,f15,negative).
example(e120,f16,negative).
example(e120,f17,negative).
example(e120,f18,negative).
example(e120,f19,negative).
example(e120,f20,negative).
example(e120,f21,negative).
example(e120,f22,positive).
example(e120,f23,negative).
example(e120,f24,negative).
example(e120,f25,negative).
example(e120,f26,negative).
example(e120,f27,negative).
example(e120,f28,negative).
example(e120,f29,negative).
example(e120,f30,negative).
example(e120,f31,negative).
example(e120,f32,negative).
example(e120,f33,negative).
example(e120,f34,negative).
example(e120,f35,negative).
example(e120,f36,negative).
example(e120,f37,negative).
example(e120,f38,negative).
example(e120,f39,negative).
example(e120,f40,negative).
example(e120,f41,negative).
example(e120,f42,negative).
example(e120,f43,negative).
example(e120,f44,negative).
example(e120,f45,negative).
example(e120,f46,negative).
example(e120,f47,negative).
example(e120,f48,negative).
example(e120,f49,negative).
example(e120,f50,negative).
example(e120,f51,negative).
example(e120,f52,negative).
example(e120,f53,negative).
example(e120,f54,negative).
example(e120,f55,negative).
example(e120,f56,negative).
example(e120,f57,negative).
example(e120,f58,negative).
example(e120,f59,negative).
example(e120,f60,negative).
example(e120,f61,positive).
example(e120,f62,negative).
example(e120,f63,negative).
example(e120,f64,negative).
example(e120,f65,positive).
example(e120,f66,negative).
example(e120,f67,positive).
example(e120,f68,negative).
example(e120,f69,positive).
example(e120,f70,negative).
example(e120,f71,negative).
example(e120,f72,negative).
example(e120,f73,positive).
example(e120,f74,negative).
example(e120,f75,negative).
example(e120,f76,negative).
example(e120,f77,negative).
example(e120,f78,positive).
example(e120,f79,negative).
example(e120,f80,negative).
example(e120,f81,negative).
example(e120,f82,negative).
example(e120,f83,negative).
example(e120,f84,negative).
example(e120,f85,negative).
example(e121,f1,positive).
example(e121,f2,negative).
example(e121,f3,negative).
example(e121,f4,negative).
example(e121,f5,positive).
example(e121,f6,negative).
example(e121,f7,negative).
example(e121,f8,positive).
example(e121,f9,negative).
example(e121,f10,positive).
example(e121,f11,negative).
example(e121,f12,negative).
example(e121,f13,negative).
example(e121,f14,negative).
example(e121,f15,negative).
example(e121,f16,negative).
example(e121,f17,positive).
example(e121,f18,negative).
example(e121,f19,negative).
example(e121,f20,negative).
example(e121,f21,negative).
example(e121,f22,negative).
example(e121,f23,negative).
example(e121,f24,negative).
example(e121,f25,negative).
example(e121,f26,negative).
example(e121,f27,negative).
example(e121,f28,negative).
example(e121,f29,negative).
example(e121,f30,negative).
example(e121,f31,negative).
example(e121,f32,negative).
example(e121,f33,negative).
example(e121,f34,negative).
example(e121,f35,negative).
example(e121,f36,negative).
example(e121,f37,negative).
example(e121,f38,negative).
example(e121,f39,negative).
example(e121,f40,negative).
example(e121,f41,negative).
example(e121,f42,negative).
example(e121,f43,negative).
example(e121,f44,negative).
example(e121,f45,negative).
example(e121,f46,negative).
example(e121,f47,negative).
example(e121,f48,negative).
example(e121,f49,negative).
example(e121,f50,negative).
example(e121,f51,negative).
example(e121,f52,negative).
example(e121,f53,negative).
example(e121,f54,negative).
example(e121,f55,negative).
example(e121,f56,negative).
example(e121,f57,negative).
example(e121,f58,negative).
example(e121,f59,negative).
example(e121,f60,negative).
example(e121,f61,negative).
example(e121,f62,negative).
example(e121,f63,negative).
example(e121,f64,negative).
example(e121,f65,negative).
example(e121,f66,negative).
example(e121,f67,positive).
example(e121,f68,negative).
example(e121,f69,positive).
example(e121,f70,negative).
example(e121,f71,negative).
example(e121,f72,negative).
example(e121,f73,negative).
example(e121,f74,negative).
example(e121,f75,negative).
example(e121,f76,negative).
example(e121,f77,positive).
example(e121,f78,positive).
example(e121,f79,negative).
example(e121,f80,negative).
example(e121,f81,negative).
example(e121,f82,negative).
example(e121,f83,negative).
example(e121,f84,negative).
example(e121,f85,negative).
example(e122,f1,negative).
example(e122,f2,negative).
example(e122,f3,negative).
example(e122,f4,negative).
example(e122,f5,negative).
example(e122,f6,negative).
example(e122,f7,negative).
example(e122,f8,positive).
example(e122,f9,negative).
example(e122,f10,positive).
example(e122,f11,negative).
example(e122,f12,negative).
example(e122,f13,negative).
example(e122,f14,negative).
example(e122,f15,negative).
example(e122,f16,negative).
example(e122,f17,positive).
example(e122,f18,positive).
example(e122,f19,negative).
example(e122,f20,negative).
example(e122,f21,negative).
example(e122,f22,negative).
example(e122,f23,positive).
example(e122,f24,negative).
example(e122,f25,negative).
example(e122,f26,negative).
example(e122,f27,negative).
example(e122,f28,negative).
example(e122,f29,negative).
example(e122,f30,negative).
example(e122,f31,negative).
example(e122,f32,negative).
example(e122,f33,negative).
example(e122,f34,negative).
example(e122,f35,negative).
example(e122,f36,negative).
example(e122,f37,negative).
example(e122,f38,negative).
example(e122,f39,negative).
example(e122,f40,negative).
example(e122,f41,negative).
example(e122,f42,negative).
example(e122,f43,negative).
example(e122,f44,positive).
example(e122,f45,negative).
example(e122,f46,negative).
example(e122,f47,negative).
example(e122,f48,negative).
example(e122,f49,negative).
example(e122,f50,negative).
example(e122,f51,negative).
example(e122,f52,negative).
example(e122,f53,negative).
example(e122,f54,negative).
example(e122,f55,negative).
example(e122,f56,negative).
example(e122,f57,negative).
example(e122,f58,negative).
example(e122,f59,negative).
example(e122,f60,negative).
example(e122,f61,negative).
example(e122,f62,negative).
example(e122,f63,negative).
example(e122,f64,negative).
example(e122,f65,negative).
example(e122,f66,negative).
example(e122,f67,positive).
example(e122,f68,negative).
example(e122,f69,positive).
example(e122,f70,negative).
example(e122,f71,negative).
example(e122,f72,negative).
example(e122,f73,positive).
example(e122,f74,negative).
example(e122,f75,negative).
example(e122,f76,negative).
example(e122,f77,negative).
example(e122,f78,negative).
example(e122,f79,negative).
example(e122,f80,negative).
example(e122,f81,negative).
example(e122,f82,negative).
example(e122,f83,negative).
example(e122,f84,negative).
example(e122,f85,negative).
example(e123,f1,positive).
example(e123,f2,positive).
example(e123,f3,negative).
example(e123,f4,negative).
example(e123,f5,negative).
example(e123,f6,negative).
example(e123,f7,negative).
example(e123,f8,positive).
example(e123,f9,negative).
example(e123,f10,positive).
example(e123,f11,positive).
example(e123,f12,negative).
example(e123,f13,negative).
example(e123,f14,negative).
example(e123,f15,negative).
example(e123,f16,negative).
example(e123,f17,positive).
example(e123,f18,positive).
example(e123,f19,negative).
example(e123,f20,negative).
example(e123,f21,positive).
example(e123,f22,negative).
example(e123,f23,negative).
example(e123,f24,negative).
example(e123,f25,negative).
example(e123,f26,negative).
example(e123,f27,negative).
example(e123,f28,negative).
example(e123,f29,negative).
example(e123,f30,negative).
example(e123,f31,negative).
example(e123,f32,negative).
example(e123,f33,negative).
example(e123,f34,negative).
example(e123,f35,negative).
example(e123,f36,negative).
example(e123,f37,negative).
example(e123,f38,negative).
example(e123,f39,negative).
example(e123,f40,negative).
example(e123,f41,negative).
example(e123,f42,negative).
example(e123,f43,negative).
example(e123,f44,negative).
example(e123,f45,negative).
example(e123,f46,negative).
example(e123,f47,negative).
example(e123,f48,negative).
example(e123,f49,negative).
example(e123,f50,negative).
example(e123,f51,negative).
example(e123,f52,negative).
example(e123,f53,negative).
example(e123,f54,negative).
example(e123,f55,negative).
example(e123,f56,negative).
example(e123,f57,negative).
example(e123,f58,negative).
example(e123,f59,negative).
example(e123,f60,negative).
example(e123,f61,negative).
example(e123,f62,negative).
example(e123,f63,negative).
example(e123,f64,negative).
example(e123,f65,negative).
example(e123,f66,negative).
example(e123,f67,positive).
example(e123,f68,negative).
example(e123,f69,positive).
example(e123,f70,negative).
example(e123,f71,negative).
example(e123,f72,negative).
example(e123,f73,negative).
example(e123,f74,negative).
example(e123,f75,negative).
example(e123,f76,negative).
example(e123,f77,positive).
example(e123,f78,positive).
example(e123,f79,negative).
example(e123,f80,negative).
example(e123,f81,negative).
example(e123,f82,negative).
example(e123,f83,negative).
example(e123,f84,negative).
example(e123,f85,negative).
example(e124,f1,positive).
example(e124,f2,positive).
example(e124,f3,negative).
example(e124,f4,negative).
example(e124,f5,negative).
example(e124,f6,negative).
example(e124,f7,positive).
example(e124,f8,negative).
example(e124,f9,negative).
example(e124,f10,positive).
example(e124,f11,negative).
example(e124,f12,negative).
example(e124,f13,positive).
example(e124,f14,negative).
example(e124,f15,negative).
example(e124,f16,negative).
example(e124,f17,negative).
example(e124,f18,negative).
example(e124,f19,negative).
example(e124,f20,negative).
example(e124,f21,positive).
example(e124,f22,positive).
example(e124,f23,negative).
example(e124,f24,negative).
example(e124,f25,positive).
example(e124,f26,positive).
example(e124,f27,negative).
example(e124,f28,negative).
example(e124,f29,negative).
example(e124,f30,negative).
example(e124,f31,negative).
example(e124,f32,negative).
example(e124,f33,negative).
example(e124,f34,negative).
example(e124,f35,negative).
example(e124,f36,negative).
example(e124,f37,negative).
example(e124,f38,negative).
example(e124,f39,negative).
example(e124,f40,negative).
example(e124,f41,negative).
example(e124,f42,negative).
example(e124,f43,negative).
example(e124,f44,negative).
example(e124,f45,negative).
example(e124,f46,negative).
example(e124,f47,negative).
example(e124,f48,negative).
example(e124,f49,negative).
example(e124,f50,negative).
example(e124,f51,negative).
example(e124,f52,negative).
example(e124,f53,negative).
example(e124,f54,negative).
example(e124,f55,negative).
example(e124,f56,negative).
example(e124,f57,negative).
example(e124,f58,negative).
example(e124,f59,negative).
example(e124,f60,negative).
example(e124,f61,negative).
example(e124,f62,negative).
example(e124,f63,negative).
example(e124,f64,negative).
example(e124,f65,negative).
example(e124,f66,negative).
example(e124,f67,positive).
example(e124,f68,negative).
example(e124,f69,positive).
example(e124,f70,negative).
example(e124,f71,negative).
example(e124,f72,negative).
example(e124,f73,negative).
example(e124,f74,negative).
example(e124,f75,negative).
example(e124,f76,negative).
example(e124,f77,positive).
example(e124,f78,positive).
example(e124,f79,negative).
example(e124,f80,negative).
example(e124,f81,negative).
example(e124,f82,negative).
example(e124,f83,negative).
example(e124,f84,negative).
example(e124,f85,negative).
example(e125,f1,negative).
example(e125,f2,negative).
example(e125,f3,negative).
example(e125,f4,negative).
example(e125,f5,negative).
example(e125,f6,negative).
example(e125,f7,negative).
example(e125,f8,positive).
example(e125,f9,negative).
example(e125,f10,positive).
example(e125,f11,negative).
example(e125,f12,negative).
example(e125,f13,negative).
example(e125,f14,negative).
example(e125,f15,negative).
example(e125,f16,negative).
example(e125,f17,positive).
example(e125,f18,negative).
example(e125,f19,negative).
example(e125,f20,negative).
example(e125,f21,positive).
example(e125,f22,positive).
example(e125,f23,negative).
example(e125,f24,negative).
example(e125,f25,positive).
example(e125,f26,positive).
example(e125,f27,negative).
example(e125,f28,negative).
example(e125,f29,negative).
example(e125,f30,negative).
example(e125,f31,negative).
example(e125,f32,negative).
example(e125,f33,negative).
example(e125,f34,negative).
example(e125,f35,negative).
example(e125,f36,negative).
example(e125,f37,negative).
example(e125,f38,negative).
example(e125,f39,negative).
example(e125,f40,negative).
example(e125,f41,negative).
example(e125,f42,negative).
example(e125,f43,negative).
example(e125,f44,negative).
example(e125,f45,positive).
example(e125,f46,negative).
example(e125,f47,negative).
example(e125,f48,negative).
example(e125,f49,negative).
example(e125,f50,negative).
example(e125,f51,negative).
example(e125,f52,negative).
example(e125,f53,negative).
example(e125,f54,negative).
example(e125,f55,negative).
example(e125,f56,negative).
example(e125,f57,negative).
example(e125,f58,negative).
example(e125,f59,negative).
example(e125,f60,negative).
example(e125,f61,negative).
example(e125,f62,negative).
example(e125,f63,negative).
example(e125,f64,negative).
example(e125,f65,negative).
example(e125,f66,negative).
example(e125,f67,positive).
example(e125,f68,negative).
example(e125,f69,positive).
example(e125,f70,negative).
example(e125,f71,negative).
example(e125,f72,negative).
example(e125,f73,positive).
example(e125,f74,negative).
example(e125,f75,negative).
example(e125,f76,negative).
example(e125,f77,negative).
example(e125,f78,positive).
example(e125,f79,negative).
example(e125,f80,negative).
example(e125,f81,negative).
example(e125,f82,negative).
example(e125,f83,negative).
example(e125,f84,negative).
example(e125,f85,negative).
example(e126,f1,positive).
example(e126,f2,negative).
example(e126,f3,positive).
example(e126,f4,negative).
example(e126,f5,negative).
example(e126,f6,negative).
example(e126,f7,negative).
example(e126,f8,positive).
example(e126,f9,negative).
example(e126,f10,positive).
example(e126,f11,negative).
example(e126,f12,negative).
example(e126,f13,negative).
example(e126,f14,negative).
example(e126,f15,negative).
example(e126,f16,negative).
example(e126,f17,negative).
example(e126,f18,negative).
example(e126,f19,negative).
example(e126,f20,negative).
example(e126,f21,negative).
example(e126,f22,negative).
example(e126,f23,negative).
example(e126,f24,negative).
example(e126,f25,negative).
example(e126,f26,negative).
example(e126,f27,negative).
example(e126,f28,negative).
example(e126,f29,negative).
example(e126,f30,negative).
example(e126,f31,negative).
example(e126,f32,negative).
example(e126,f33,negative).
example(e126,f34,negative).
example(e126,f35,negative).
example(e126,f36,negative).
example(e126,f37,negative).
example(e126,f38,negative).
example(e126,f39,negative).
example(e126,f40,negative).
example(e126,f41,negative).
example(e126,f42,negative).
example(e126,f43,negative).
example(e126,f44,negative).
example(e126,f45,negative).
example(e126,f46,negative).
example(e126,f47,positive).
example(e126,f48,negative).
example(e126,f49,negative).
example(e126,f50,negative).
example(e126,f51,negative).
example(e126,f52,negative).
example(e126,f53,negative).
example(e126,f54,negative).
example(e126,f55,negative).
example(e126,f56,negative).
example(e126,f57,negative).
example(e126,f58,negative).
example(e126,f59,negative).
example(e126,f60,negative).
example(e126,f61,negative).
example(e126,f62,negative).
example(e126,f63,negative).
example(e126,f64,negative).
example(e126,f65,negative).
example(e126,f66,negative).
example(e126,f67,positive).
example(e126,f68,negative).
example(e126,f69,positive).
example(e126,f70,negative).
example(e126,f71,negative).
example(e126,f72,negative).
example(e126,f73,positive).
example(e126,f74,negative).
example(e126,f75,negative).
example(e126,f76,negative).
example(e126,f77,negative).
example(e126,f78,positive).
example(e126,f79,negative).
example(e126,f80,negative).
example(e126,f81,negative).
example(e126,f82,negative).
example(e126,f83,negative).
example(e126,f84,negative).
example(e126,f85,negative).
example(e127,f1,negative).
example(e127,f2,positive).
example(e127,f3,negative).
example(e127,f4,negative).
example(e127,f5,negative).
example(e127,f6,positive).
example(e127,f7,negative).
example(e127,f8,negative).
example(e127,f9,negative).
example(e127,f10,negative).
example(e127,f11,negative).
example(e127,f12,positive).
example(e127,f13,negative).
example(e127,f14,negative).
example(e127,f15,negative).
example(e127,f16,negative).
example(e127,f17,negative).
example(e127,f18,negative).
example(e127,f19,negative).
example(e127,f20,negative).
example(e127,f21,negative).
example(e127,f22,positive).
example(e127,f23,negative).
example(e127,f24,negative).
example(e127,f25,negative).
example(e127,f26,negative).
example(e127,f27,negative).
example(e127,f28,negative).
example(e127,f29,negative).
example(e127,f30,negative).
example(e127,f31,negative).
example(e127,f32,negative).
example(e127,f33,negative).
example(e127,f34,negative).
example(e127,f35,negative).
example(e127,f36,negative).
example(e127,f37,negative).
example(e127,f38,negative).
example(e127,f39,negative).
example(e127,f40,negative).
example(e127,f41,negative).
example(e127,f42,negative).
example(e127,f43,negative).
example(e127,f44,negative).
example(e127,f45,negative).
example(e127,f46,negative).
example(e127,f47,negative).
example(e127,f48,negative).
example(e127,f49,negative).
example(e127,f50,negative).
example(e127,f51,negative).
example(e127,f52,negative).
example(e127,f53,negative).
example(e127,f54,negative).
example(e127,f55,negative).
example(e127,f56,negative).
example(e127,f57,negative).
example(e127,f58,negative).
example(e127,f59,negative).
example(e127,f60,negative).
example(e127,f61,negative).
example(e127,f62,negative).
example(e127,f63,negative).
example(e127,f64,negative).
example(e127,f65,negative).
example(e127,f66,negative).
example(e127,f67,negative).
example(e127,f68,negative).
example(e127,f69,negative).
example(e127,f70,negative).
example(e127,f71,negative).
example(e127,f72,negative).
example(e127,f73,negative).
example(e127,f74,negative).
example(e127,f75,negative).
example(e127,f76,negative).
example(e127,f77,positive).
example(e127,f78,positive).
example(e127,f79,negative).
example(e127,f80,negative).
example(e127,f81,positive).
example(e127,f82,negative).
example(e127,f83,negative).
example(e127,f84,negative).
example(e127,f85,negative).
example(e128,f1,negative).
example(e128,f2,negative).
example(e128,f3,negative).
example(e128,f4,negative).
example(e128,f5,positive).
example(e128,f6,positive).
example(e128,f7,negative).
example(e128,f8,negative).
example(e128,f9,negative).
example(e128,f10,negative).
example(e128,f11,negative).
example(e128,f12,negative).
example(e128,f13,negative).
example(e128,f14,positive).
example(e128,f15,negative).
example(e128,f16,negative).
example(e128,f17,negative).
example(e128,f18,negative).
example(e128,f19,negative).
example(e128,f20,negative).
example(e128,f21,negative).
example(e128,f22,negative).
example(e128,f23,negative).
example(e128,f24,negative).
example(e128,f25,negative).
example(e128,f26,negative).
example(e128,f27,negative).
example(e128,f28,negative).
example(e128,f29,negative).
example(e128,f30,negative).
example(e128,f31,negative).
example(e128,f32,negative).
example(e128,f33,negative).
example(e128,f34,negative).
example(e128,f35,negative).
example(e128,f36,negative).
example(e128,f37,negative).
example(e128,f38,negative).
example(e128,f39,negative).
example(e128,f40,negative).
example(e128,f41,negative).
example(e128,f42,negative).
example(e128,f43,negative).
example(e128,f44,negative).
example(e128,f45,negative).
example(e128,f46,negative).
example(e128,f47,negative).
example(e128,f48,negative).
example(e128,f49,negative).
example(e128,f50,negative).
example(e128,f51,negative).
example(e128,f52,negative).
example(e128,f53,negative).
example(e128,f54,negative).
example(e128,f55,negative).
example(e128,f56,negative).
example(e128,f57,negative).
example(e128,f58,negative).
example(e128,f59,negative).
example(e128,f60,negative).
example(e128,f61,negative).
example(e128,f62,negative).
example(e128,f63,negative).
example(e128,f64,negative).
example(e128,f65,negative).
example(e128,f66,negative).
example(e128,f67,negative).
example(e128,f68,positive).
example(e128,f69,negative).
example(e128,f70,negative).
example(e128,f71,negative).
example(e128,f72,negative).
example(e128,f73,negative).
example(e128,f74,positive).
example(e128,f75,negative).
example(e128,f76,negative).
example(e128,f77,negative).
example(e128,f78,positive).
example(e128,f79,negative).
example(e128,f80,negative).
example(e128,f81,positive).
example(e128,f82,negative).
example(e128,f83,negative).
example(e128,f84,negative).
example(e128,f85,negative).
example(e129,f1,negative).
example(e129,f2,negative).
example(e129,f3,negative).
example(e129,f4,negative).
example(e129,f5,negative).
example(e129,f6,positive).
example(e129,f7,negative).
example(e129,f8,negative).
example(e129,f9,positive).
example(e129,f10,negative).
example(e129,f11,negative).
example(e129,f12,positive).
example(e129,f13,negative).
example(e129,f14,negative).
example(e129,f15,negative).
example(e129,f16,negative).
example(e129,f17,negative).
example(e129,f18,negative).
example(e129,f19,negative).
example(e129,f20,negative).
example(e129,f21,negative).
example(e129,f22,negative).
example(e129,f23,negative).
example(e129,f24,negative).
example(e129,f25,negative).
example(e129,f26,negative).
example(e129,f27,negative).
example(e129,f28,negative).
example(e129,f29,negative).
example(e129,f30,negative).
example(e129,f31,negative).
example(e129,f32,negative).
example(e129,f33,negative).
example(e129,f34,negative).
example(e129,f35,negative).
example(e129,f36,negative).
example(e129,f37,negative).
example(e129,f38,negative).
example(e129,f39,negative).
example(e129,f40,negative).
example(e129,f41,negative).
example(e129,f42,negative).
example(e129,f43,negative).
example(e129,f44,negative).
example(e129,f45,negative).
example(e129,f46,negative).
example(e129,f47,negative).
example(e129,f48,negative).
example(e129,f49,negative).
example(e129,f50,negative).
example(e129,f51,negative).
example(e129,f52,negative).
example(e129,f53,negative).
example(e129,f54,negative).
example(e129,f55,negative).
example(e129,f56,negative).
example(e129,f57,negative).
example(e129,f58,negative).
example(e129,f59,negative).
example(e129,f60,negative).
example(e129,f61,negative).
example(e129,f62,negative).
example(e129,f63,negative).
example(e129,f64,negative).
example(e129,f65,negative).
example(e129,f66,negative).
example(e129,f67,negative).
example(e129,f68,negative).
example(e129,f69,negative).
example(e129,f70,negative).
example(e129,f71,negative).
example(e129,f72,negative).
example(e129,f73,negative).
example(e129,f74,negative).
example(e129,f75,negative).
example(e129,f76,positive).
example(e129,f77,negative).
example(e129,f78,positive).
example(e129,f79,negative).
example(e129,f80,negative).
example(e129,f81,negative).
example(e129,f82,negative).
example(e129,f83,negative).
example(e129,f84,negative).
example(e129,f85,negative).
example(e130,f1,positive).
example(e130,f2,positive).
example(e130,f3,negative).
example(e130,f4,negative).
example(e130,f5,negative).
example(e130,f6,positive).
example(e130,f7,negative).
example(e130,f8,positive).
example(e130,f9,negative).
example(e130,f10,negative).
example(e130,f11,negative).
example(e130,f12,negative).
example(e130,f13,negative).
example(e130,f14,negative).
example(e130,f15,negative).
example(e130,f16,negative).
example(e130,f17,negative).
example(e130,f18,negative).
example(e130,f19,negative).
example(e130,f20,negative).
example(e130,f21,negative).
example(e130,f22,positive).
example(e130,f23,negative).
example(e130,f24,negative).
example(e130,f25,negative).
example(e130,f26,negative).
example(e130,f27,negative).
example(e130,f28,negative).
example(e130,f29,negative).
example(e130,f30,negative).
example(e130,f31,negative).
example(e130,f32,negative).
example(e130,f33,negative).
example(e130,f34,negative).
example(e130,f35,negative).
example(e130,f36,negative).
example(e130,f37,negative).
example(e130,f38,negative).
example(e130,f39,negative).
example(e130,f40,negative).
example(e130,f41,negative).
example(e130,f42,negative).
example(e130,f43,negative).
example(e130,f44,negative).
example(e130,f45,negative).
example(e130,f46,negative).
example(e130,f47,negative).
example(e130,f48,negative).
example(e130,f49,negative).
example(e130,f50,negative).
example(e130,f51,negative).
example(e130,f52,negative).
example(e130,f53,negative).
example(e130,f54,negative).
example(e130,f55,negative).
example(e130,f56,negative).
example(e130,f57,negative).
example(e130,f58,negative).
example(e130,f59,negative).
example(e130,f60,negative).
example(e130,f61,negative).
example(e130,f62,negative).
example(e130,f63,negative).
example(e130,f64,negative).
example(e130,f65,negative).
example(e130,f66,negative).
example(e130,f67,negative).
example(e130,f68,negative).
example(e130,f69,negative).
example(e130,f70,negative).
example(e130,f71,negative).
example(e130,f72,negative).
example(e130,f73,negative).
example(e130,f74,negative).
example(e130,f75,negative).
example(e130,f76,negative).
example(e130,f77,positive).
example(e130,f78,positive).
example(e130,f79,negative).
example(e130,f80,negative).
example(e130,f81,positive).
example(e130,f82,negative).
example(e130,f83,negative).
example(e130,f84,negative).
example(e130,f85,negative).
example(e131,f1,positive).
example(e131,f2,negative).
example(e131,f3,positive).
example(e131,f4,negative).
example(e131,f5,negative).
example(e131,f6,negative).
example(e131,f7,negative).
example(e131,f8,negative).
example(e131,f9,negative).
example(e131,f10,negative).
example(e131,f11,negative).
example(e131,f12,positive).
example(e131,f13,negative).
example(e131,f14,negative).
example(e131,f15,negative).
example(e131,f16,negative).
example(e131,f17,negative).
example(e131,f18,negative).
example(e131,f19,negative).
example(e131,f20,negative).
example(e131,f21,negative).
example(e131,f22,positive).
example(e131,f23,negative).
example(e131,f24,negative).
example(e131,f25,negative).
example(e131,f26,negative).
example(e131,f27,negative).
example(e131,f28,negative).
example(e131,f29,negative).
example(e131,f30,negative).
example(e131,f31,negative).
example(e131,f32,negative).
example(e131,f33,negative).
example(e131,f34,negative).
example(e131,f35,negative).
example(e131,f36,negative).
example(e131,f37,negative).
example(e131,f38,negative).
example(e131,f39,negative).
example(e131,f40,negative).
example(e131,f41,negative).
example(e131,f42,negative).
example(e131,f43,negative).
example(e131,f44,negative).
example(e131,f45,negative).
example(e131,f46,negative).
example(e131,f47,negative).
example(e131,f48,negative).
example(e131,f49,negative).
example(e131,f50,negative).
example(e131,f51,negative).
example(e131,f52,negative).
example(e131,f53,negative).
example(e131,f54,negative).
example(e131,f55,negative).
example(e131,f56,negative).
example(e131,f57,negative).
example(e131,f58,negative).
example(e131,f59,negative).
example(e131,f60,positive).
example(e131,f61,negative).
example(e131,f62,negative).
example(e131,f63,negative).
example(e131,f64,negative).
example(e131,f65,negative).
example(e131,f66,negative).
example(e131,f67,positive).
example(e131,f68,negative).
example(e131,f69,negative).
example(e131,f70,negative).
example(e131,f71,negative).
example(e131,f72,negative).
example(e131,f73,negative).
example(e131,f74,negative).
example(e131,f75,negative).
example(e131,f76,negative).
example(e131,f77,negative).
example(e131,f78,positive).
example(e131,f79,negative).
example(e131,f80,negative).
example(e131,f81,negative).
example(e131,f82,negative).
example(e131,f83,negative).
example(e131,f84,negative).
example(e131,f85,negative).
example(e132,f1,negative).
example(e132,f2,negative).
example(e132,f3,positive).
example(e132,f4,negative).
example(e132,f5,negative).
example(e132,f6,negative).
example(e132,f7,negative).
example(e132,f8,positive).
example(e132,f9,negative).
example(e132,f10,positive).
example(e132,f11,negative).
example(e132,f12,negative).
example(e132,f13,positive).
example(e132,f14,negative).
example(e132,f15,negative).
example(e132,f16,negative).
example(e132,f17,negative).
example(e132,f18,negative).
example(e132,f19,negative).
example(e132,f20,negative).
example(e132,f21,negative).
example(e132,f22,positive).
example(e132,f23,negative).
example(e132,f24,negative).
example(e132,f25,negative).
example(e132,f26,negative).
example(e132,f27,negative).
example(e132,f28,negative).
example(e132,f29,negative).
example(e132,f30,negative).
example(e132,f31,negative).
example(e132,f32,negative).
example(e132,f33,negative).
example(e132,f34,negative).
example(e132,f35,negative).
example(e132,f36,negative).
example(e132,f37,negative).
example(e132,f38,negative).
example(e132,f39,negative).
example(e132,f40,negative).
example(e132,f41,negative).
example(e132,f42,negative).
example(e132,f43,negative).
example(e132,f44,negative).
example(e132,f45,negative).
example(e132,f46,negative).
example(e132,f47,negative).
example(e132,f48,negative).
example(e132,f49,negative).
example(e132,f50,negative).
example(e132,f51,negative).
example(e132,f52,negative).
example(e132,f53,negative).
example(e132,f54,negative).
example(e132,f55,negative).
example(e132,f56,negative).
example(e132,f57,negative).
example(e132,f58,negative).
example(e132,f59,negative).
example(e132,f60,negative).
example(e132,f61,negative).
example(e132,f62,positive).
example(e132,f63,negative).
example(e132,f64,negative).
example(e132,f65,negative).
example(e132,f66,negative).
example(e132,f67,positive).
example(e132,f68,negative).
example(e132,f69,positive).
example(e132,f70,negative).
example(e132,f71,negative).
example(e132,f72,negative).
example(e132,f73,positive).
example(e132,f74,negative).
example(e132,f75,negative).
example(e132,f76,negative).
example(e132,f77,negative).
example(e132,f78,positive).
example(e132,f79,negative).
example(e132,f80,negative).
example(e132,f81,negative).
example(e132,f82,negative).
example(e132,f83,negative).
example(e132,f84,negative).
example(e132,f85,negative).
example(e133,f1,negative).
example(e133,f2,negative).
example(e133,f3,negative).
example(e133,f4,negative).
example(e133,f5,negative).
example(e133,f6,negative).
example(e133,f7,negative).
example(e133,f8,positive).
example(e133,f9,positive).
example(e133,f10,negative).
example(e133,f11,negative).
example(e133,f12,negative).
example(e133,f13,positive).
example(e133,f14,negative).
example(e133,f15,negative).
example(e133,f16,negative).
example(e133,f17,negative).
example(e133,f18,negative).
example(e133,f19,negative).
example(e133,f20,negative).
example(e133,f21,negative).
example(e133,f22,positive).
example(e133,f23,negative).
example(e133,f24,negative).
example(e133,f25,negative).
example(e133,f26,negative).
example(e133,f27,negative).
example(e133,f28,negative).
example(e133,f29,negative).
example(e133,f30,negative).
example(e133,f31,negative).
example(e133,f32,negative).
example(e133,f33,negative).
example(e133,f34,negative).
example(e133,f35,negative).
example(e133,f36,negative).
example(e133,f37,negative).
example(e133,f38,negative).
example(e133,f39,negative).
example(e133,f40,negative).
example(e133,f41,negative).
example(e133,f42,negative).
example(e133,f43,negative).
example(e133,f44,negative).
example(e133,f45,negative).
example(e133,f46,negative).
example(e133,f47,negative).
example(e133,f48,negative).
example(e133,f49,negative).
example(e133,f50,negative).
example(e133,f51,negative).
example(e133,f52,negative).
example(e133,f53,negative).
example(e133,f54,negative).
example(e133,f55,negative).
example(e133,f56,negative).
example(e133,f57,negative).
example(e133,f58,negative).
example(e133,f59,negative).
example(e133,f60,negative).
example(e133,f61,negative).
example(e133,f62,negative).
example(e133,f63,negative).
example(e133,f64,negative).
example(e133,f65,positive).
example(e133,f66,negative).
example(e133,f67,positive).
example(e133,f68,positive).
example(e133,f69,negative).
example(e133,f70,positive).
example(e133,f71,negative).
example(e133,f72,negative).
example(e133,f73,negative).
example(e133,f74,positive).
example(e133,f75,negative).
example(e133,f76,negative).
example(e133,f77,negative).
example(e133,f78,positive).
example(e133,f79,negative).
example(e133,f80,negative).
example(e133,f81,negative).
example(e133,f82,negative).
example(e133,f83,negative).
example(e133,f84,negative).
example(e133,f85,negative).
example(e134,f1,negative).
example(e134,f2,negative).
example(e134,f3,positive).
example(e134,f4,negative).
example(e134,f5,negative).
example(e134,f6,negative).
example(e134,f7,negative).
example(e134,f8,positive).
example(e134,f9,negative).
example(e134,f10,positive).
example(e134,f11,negative).
example(e134,f12,positive).
example(e134,f13,negative).
example(e134,f14,negative).
example(e134,f15,negative).
example(e134,f16,negative).
example(e134,f17,positive).
example(e134,f18,negative).
example(e134,f19,negative).
example(e134,f20,negative).
example(e134,f21,negative).
example(e134,f22,negative).
example(e134,f23,negative).
example(e134,f24,negative).
example(e134,f25,negative).
example(e134,f26,negative).
example(e134,f27,negative).
example(e134,f28,negative).
example(e134,f29,negative).
example(e134,f30,negative).
example(e134,f31,negative).
example(e134,f32,negative).
example(e134,f33,negative).
example(e134,f34,negative).
example(e134,f35,negative).
example(e134,f36,negative).
example(e134,f37,negative).
example(e134,f38,negative).
example(e134,f39,negative).
example(e134,f40,negative).
example(e134,f41,negative).
example(e134,f42,negative).
example(e134,f43,negative).
example(e134,f44,negative).
example(e134,f45,negative).
example(e134,f46,negative).
example(e134,f47,negative).
example(e134,f48,negative).
example(e134,f49,negative).
example(e134,f50,negative).
example(e134,f51,negative).
example(e134,f52,negative).
example(e134,f53,negative).
example(e134,f54,negative).
example(e134,f55,negative).
example(e134,f56,negative).
example(e134,f57,negative).
example(e134,f58,negative).
example(e134,f59,negative).
example(e134,f60,negative).
example(e134,f61,negative).
example(e134,f62,negative).
example(e134,f63,negative).
example(e134,f64,negative).
example(e134,f65,negative).
example(e134,f66,positive).
example(e134,f67,negative).
example(e134,f68,positive).
example(e134,f69,negative).
example(e134,f70,negative).
example(e134,f71,negative).
example(e134,f72,negative).
example(e134,f73,negative).
example(e134,f74,negative).
example(e134,f75,negative).
example(e134,f76,positive).
example(e134,f77,negative).
example(e134,f78,positive).
example(e134,f79,negative).
example(e134,f80,negative).
example(e134,f81,negative).
example(e134,f82,negative).
example(e134,f83,negative).
example(e134,f84,negative).
example(e134,f85,negative).
example(e135,f1,negative).
example(e135,f2,negative).
example(e135,f3,negative).
example(e135,f4,negative).
example(e135,f5,negative).
example(e135,f6,negative).
example(e135,f7,positive).
example(e135,f8,negative).
example(e135,f9,positive).
example(e135,f10,negative).
example(e135,f11,negative).
example(e135,f12,negative).
example(e135,f13,negative).
example(e135,f14,negative).
example(e135,f15,negative).
example(e135,f16,negative).
example(e135,f17,positive).
example(e135,f18,negative).
example(e135,f19,negative).
example(e135,f20,negative).
example(e135,f21,negative).
example(e135,f22,negative).
example(e135,f23,negative).
example(e135,f24,positive).
example(e135,f25,negative).
example(e135,f26,negative).
example(e135,f27,negative).
example(e135,f28,negative).
example(e135,f29,negative).
example(e135,f30,negative).
example(e135,f31,negative).
example(e135,f32,negative).
example(e135,f33,negative).
example(e135,f34,negative).
example(e135,f35,negative).
example(e135,f36,negative).
example(e135,f37,negative).
example(e135,f38,negative).
example(e135,f39,negative).
example(e135,f40,negative).
example(e135,f41,negative).
example(e135,f42,negative).
example(e135,f43,negative).
example(e135,f44,negative).
example(e135,f45,negative).
example(e135,f46,negative).
example(e135,f47,negative).
example(e135,f48,negative).
example(e135,f49,negative).
example(e135,f50,negative).
example(e135,f51,negative).
example(e135,f52,negative).
example(e135,f53,negative).
example(e135,f54,negative).
example(e135,f55,negative).
example(e135,f56,negative).
example(e135,f57,negative).
example(e135,f58,negative).
example(e135,f59,negative).
example(e135,f60,negative).
example(e135,f61,negative).
example(e135,f62,negative).
example(e135,f63,negative).
example(e135,f64,negative).
example(e135,f65,positive).
example(e135,f66,negative).
example(e135,f67,positive).
example(e135,f68,negative).
example(e135,f69,positive).
example(e135,f70,negative).
example(e135,f71,negative).
example(e135,f72,negative).
example(e135,f73,negative).
example(e135,f74,negative).
example(e135,f75,negative).
example(e135,f76,negative).
example(e135,f77,negative).
example(e135,f78,positive).
example(e135,f79,negative).
example(e135,f80,negative).
example(e135,f81,negative).
example(e135,f82,negative).
example(e135,f83,negative).
example(e135,f84,positive).
example(e135,f85,negative).
example(e136,f1,negative).
example(e136,f2,negative).
example(e136,f3,negative).
example(e136,f4,negative).
example(e136,f5,negative).
example(e136,f6,negative).
example(e136,f7,negative).
example(e136,f8,negative).
example(e136,f9,negative).
example(e136,f10,negative).
example(e136,f11,negative).
example(e136,f12,positive).
example(e136,f13,negative).
example(e136,f14,negative).
example(e136,f15,negative).
example(e136,f16,negative).
example(e136,f17,positive).
example(e136,f18,negative).
example(e136,f19,negative).
example(e136,f20,negative).
example(e136,f21,negative).
example(e136,f22,positive).
example(e136,f23,negative).
example(e136,f24,positive).
example(e136,f25,negative).
example(e136,f26,negative).
example(e136,f27,negative).
example(e136,f28,negative).
example(e136,f29,negative).
example(e136,f30,positive).
example(e136,f31,negative).
example(e136,f32,negative).
example(e136,f33,negative).
example(e136,f34,negative).
example(e136,f35,negative).
example(e136,f36,negative).
example(e136,f37,negative).
example(e136,f38,negative).
example(e136,f39,negative).
example(e136,f40,negative).
example(e136,f41,negative).
example(e136,f42,negative).
example(e136,f43,negative).
example(e136,f44,negative).
example(e136,f45,negative).
example(e136,f46,negative).
example(e136,f47,negative).
example(e136,f48,negative).
example(e136,f49,negative).
example(e136,f50,negative).
example(e136,f51,negative).
example(e136,f52,negative).
example(e136,f53,negative).
example(e136,f54,negative).
example(e136,f55,negative).
example(e136,f56,negative).
example(e136,f57,negative).
example(e136,f58,negative).
example(e136,f59,negative).
example(e136,f60,negative).
example(e136,f61,negative).
example(e136,f62,negative).
example(e136,f63,negative).
example(e136,f64,negative).
example(e136,f65,negative).
example(e136,f66,negative).
example(e136,f67,negative).
example(e136,f68,positive).
example(e136,f69,negative).
example(e136,f70,negative).
example(e136,f71,negative).
example(e136,f72,negative).
example(e136,f73,negative).
example(e136,f74,negative).
example(e136,f75,negative).
example(e136,f76,positive).
example(e136,f77,negative).
example(e136,f78,positive).
example(e136,f79,positive).
example(e136,f80,negative).
example(e136,f81,negative).
example(e136,f82,negative).
example(e136,f83,negative).
example(e136,f84,negative).
example(e136,f85,negative).
example(e137,f1,negative).
example(e137,f2,negative).
example(e137,f3,positive).
example(e137,f4,negative).
example(e137,f5,negative).
example(e137,f6,negative).
example(e137,f7,negative).
example(e137,f8,positive).
example(e137,f9,negative).
example(e137,f10,positive).
example(e137,f11,negative).
example(e137,f12,negative).
example(e137,f13,positive).
example(e137,f14,negative).
example(e137,f15,negative).
example(e137,f16,negative).
example(e137,f17,negative).
example(e137,f18,negative).
example(e137,f19,negative).
example(e137,f20,negative).
example(e137,f21,negative).
example(e137,f22,negative).
example(e137,f23,negative).
example(e137,f24,negative).
example(e137,f25,negative).
example(e137,f26,negative).
example(e137,f27,negative).
example(e137,f28,negative).
example(e137,f29,negative).
example(e137,f30,negative).
example(e137,f31,negative).
example(e137,f32,negative).
example(e137,f33,negative).
example(e137,f34,negative).
example(e137,f35,negative).
example(e137,f36,negative).
example(e137,f37,negative).
example(e137,f38,negative).
example(e137,f39,negative).
example(e137,f40,negative).
example(e137,f41,negative).
example(e137,f42,negative).
example(e137,f43,negative).
example(e137,f44,negative).
example(e137,f45,negative).
example(e137,f46,negative).
example(e137,f47,negative).
example(e137,f48,negative).
example(e137,f49,negative).
example(e137,f50,negative).
example(e137,f51,negative).
example(e137,f52,negative).
example(e137,f53,negative).
example(e137,f54,negative).
example(e137,f55,negative).
example(e137,f56,negative).
example(e137,f57,negative).
example(e137,f58,negative).
example(e137,f59,negative).
example(e137,f60,negative).
example(e137,f61,positive).
example(e137,f62,negative).
example(e137,f63,negative).
example(e137,f64,positive).
example(e137,f65,negative).
example(e137,f66,negative).
example(e137,f67,positive).
example(e137,f68,negative).
example(e137,f69,positive).
example(e137,f70,negative).
example(e137,f71,negative).
example(e137,f72,negative).
example(e137,f73,positive).
example(e137,f74,negative).
example(e137,f75,negative).
example(e137,f76,negative).
example(e137,f77,negative).
example(e137,f78,positive).
example(e137,f79,negative).
example(e137,f80,negative).
example(e137,f81,negative).
example(e137,f82,negative).
example(e137,f83,negative).
example(e137,f84,negative).
example(e137,f85,negative).
example(e138,f1,negative).
example(e138,f2,positive).
example(e138,f3,negative).
example(e138,f4,negative).
example(e138,f5,negative).
example(e138,f6,positive).
example(e138,f7,negative).
example(e138,f8,negative).
example(e138,f9,negative).
example(e138,f10,negative).
example(e138,f11,negative).
example(e138,f12,negative).
example(e138,f13,negative).
example(e138,f14,negative).
example(e138,f15,negative).
example(e138,f16,negative).
example(e138,f17,negative).
example(e138,f18,negative).
example(e138,f19,negative).
example(e138,f20,negative).
example(e138,f21,negative).
example(e138,f22,negative).
example(e138,f23,negative).
example(e138,f24,positive).
example(e138,f25,negative).
example(e138,f26,negative).
example(e138,f27,negative).
example(e138,f28,negative).
example(e138,f29,negative).
example(e138,f30,negative).
example(e138,f31,negative).
example(e138,f32,negative).
example(e138,f33,negative).
example(e138,f34,negative).
example(e138,f35,negative).
example(e138,f36,negative).
example(e138,f37,negative).
example(e138,f38,negative).
example(e138,f39,negative).
example(e138,f40,negative).
example(e138,f41,negative).
example(e138,f42,negative).
example(e138,f43,negative).
example(e138,f44,negative).
example(e138,f45,negative).
example(e138,f46,negative).
example(e138,f47,negative).
example(e138,f48,positive).
example(e138,f49,negative).
example(e138,f50,negative).
example(e138,f51,negative).
example(e138,f52,negative).
example(e138,f53,negative).
example(e138,f54,negative).
example(e138,f55,negative).
example(e138,f56,negative).
example(e138,f57,negative).
example(e138,f58,negative).
example(e138,f59,negative).
example(e138,f60,negative).
example(e138,f61,negative).
example(e138,f62,negative).
example(e138,f63,negative).
example(e138,f64,negative).
example(e138,f65,negative).
example(e138,f66,negative).
example(e138,f67,negative).
example(e138,f68,negative).
example(e138,f69,positive).
example(e138,f70,negative).
example(e138,f71,negative).
example(e138,f72,negative).
example(e138,f73,positive).
example(e138,f74,negative).
example(e138,f75,negative).
example(e138,f76,negative).
example(e138,f77,negative).
example(e138,f78,positive).
example(e138,f79,negative).
example(e138,f80,positive).
example(e138,f81,negative).
example(e138,f82,negative).
example(e138,f83,negative).
example(e138,f84,negative).
example(e138,f85,negative).
example(e139,f1,negative).
example(e139,f2,negative).
example(e139,f3,positive).
example(e139,f4,negative).
example(e139,f5,negative).
example(e139,f6,negative).
example(e139,f7,negative).
example(e139,f8,negative).
example(e139,f9,negative).
example(e139,f10,positive).
example(e139,f11,negative).
example(e139,f12,positive).
example(e139,f13,negative).
example(e139,f14,negative).
example(e139,f15,negative).
example(e139,f16,negative).
example(e139,f17,negative).
example(e139,f18,negative).
example(e139,f19,negative).
example(e139,f20,negative).
example(e139,f21,negative).
example(e139,f22,negative).
example(e139,f23,negative).
example(e139,f24,negative).
example(e139,f25,negative).
example(e139,f26,negative).
example(e139,f27,negative).
example(e139,f28,negative).
example(e139,f29,negative).
example(e139,f30,negative).
example(e139,f31,negative).
example(e139,f32,negative).
example(e139,f33,negative).
example(e139,f34,negative).
example(e139,f35,negative).
example(e139,f36,negative).
example(e139,f37,negative).
example(e139,f38,negative).
example(e139,f39,negative).
example(e139,f40,negative).
example(e139,f41,negative).
example(e139,f42,negative).
example(e139,f43,negative).
example(e139,f44,negative).
example(e139,f45,negative).
example(e139,f46,negative).
example(e139,f47,negative).
example(e139,f48,negative).
example(e139,f49,negative).
example(e139,f50,negative).
example(e139,f51,negative).
example(e139,f52,negative).
example(e139,f53,negative).
example(e139,f54,negative).
example(e139,f55,negative).
example(e139,f56,negative).
example(e139,f57,negative).
example(e139,f58,negative).
example(e139,f59,negative).
example(e139,f60,negative).
example(e139,f61,negative).
example(e139,f62,negative).
example(e139,f63,negative).
example(e139,f64,negative).
example(e139,f65,negative).
example(e139,f66,negative).
example(e139,f67,negative).
example(e139,f68,negative).
example(e139,f69,negative).
example(e139,f70,negative).
example(e139,f71,negative).
example(e139,f72,negative).
example(e139,f73,negative).
example(e139,f74,negative).
example(e139,f75,negative).
example(e139,f76,positive).
example(e139,f77,negative).
example(e139,f78,positive).
example(e139,f79,negative).
example(e139,f80,negative).
example(e139,f81,negative).
example(e139,f82,negative).
example(e139,f83,negative).
example(e139,f84,negative).
example(e139,f85,negative).
example(e140,f1,negative).
example(e140,f2,negative).
example(e140,f3,negative).
example(e140,f4,negative).
example(e140,f5,negative).
example(e140,f6,negative).
example(e140,f7,negative).
example(e140,f8,negative).
example(e140,f9,negative).
example(e140,f10,negative).
example(e140,f11,negative).
example(e140,f12,negative).
example(e140,f13,negative).
example(e140,f14,negative).
example(e140,f15,negative).
example(e140,f16,negative).
example(e140,f17,negative).
example(e140,f18,positive).
example(e140,f19,negative).
example(e140,f20,negative).
example(e140,f21,negative).
example(e140,f22,negative).
example(e140,f23,negative).
example(e140,f24,negative).
example(e140,f25,negative).
example(e140,f26,negative).
example(e140,f27,negative).
example(e140,f28,negative).
example(e140,f29,negative).
example(e140,f30,negative).
example(e140,f31,negative).
example(e140,f32,negative).
example(e140,f33,negative).
example(e140,f34,negative).
example(e140,f35,negative).
example(e140,f36,negative).
example(e140,f37,negative).
example(e140,f38,negative).
example(e140,f39,negative).
example(e140,f40,negative).
example(e140,f41,negative).
example(e140,f42,negative).
example(e140,f43,negative).
example(e140,f44,negative).
example(e140,f45,negative).
example(e140,f46,negative).
example(e140,f47,negative).
example(e140,f48,negative).
example(e140,f49,negative).
example(e140,f50,positive).
example(e140,f51,negative).
example(e140,f52,negative).
example(e140,f53,negative).
example(e140,f54,negative).
example(e140,f55,negative).
example(e140,f56,negative).
example(e140,f57,negative).
example(e140,f58,negative).
example(e140,f59,negative).
example(e140,f60,negative).
example(e140,f61,negative).
example(e140,f62,negative).
example(e140,f63,negative).
example(e140,f64,negative).
example(e140,f65,negative).
example(e140,f66,negative).
example(e140,f67,negative).
example(e140,f68,positive).
example(e140,f69,negative).
example(e140,f70,negative).
example(e140,f71,negative).
example(e140,f72,negative).
example(e140,f73,negative).
example(e140,f74,negative).
example(e140,f75,negative).
example(e140,f76,positive).
example(e140,f77,negative).
example(e140,f78,positive).
example(e140,f79,negative).
example(e140,f80,negative).
example(e140,f81,negative).
example(e140,f82,negative).
example(e140,f83,negative).
example(e140,f84,negative).
example(e140,f85,negative).
example(e141,f1,positive).
example(e141,f2,negative).
example(e141,f3,positive).
example(e141,f4,negative).
example(e141,f5,negative).
example(e141,f6,negative).
example(e141,f7,negative).
example(e141,f8,negative).
example(e141,f9,negative).
example(e141,f10,negative).
example(e141,f11,negative).
example(e141,f12,positive).
example(e141,f13,negative).
example(e141,f14,negative).
example(e141,f15,negative).
example(e141,f16,negative).
example(e141,f17,negative).
example(e141,f18,negative).
example(e141,f19,negative).
example(e141,f20,negative).
example(e141,f21,negative).
example(e141,f22,negative).
example(e141,f23,negative).
example(e141,f24,negative).
example(e141,f25,negative).
example(e141,f26,negative).
example(e141,f27,negative).
example(e141,f28,negative).
example(e141,f29,negative).
example(e141,f30,negative).
example(e141,f31,negative).
example(e141,f32,negative).
example(e141,f33,negative).
example(e141,f34,negative).
example(e141,f35,negative).
example(e141,f36,negative).
example(e141,f37,negative).
example(e141,f38,negative).
example(e141,f39,negative).
example(e141,f40,negative).
example(e141,f41,negative).
example(e141,f42,negative).
example(e141,f43,negative).
example(e141,f44,negative).
example(e141,f45,negative).
example(e141,f46,negative).
example(e141,f47,negative).
example(e141,f48,negative).
example(e141,f49,negative).
example(e141,f50,negative).
example(e141,f51,negative).
example(e141,f52,negative).
example(e141,f53,negative).
example(e141,f54,negative).
example(e141,f55,negative).
example(e141,f56,negative).
example(e141,f57,negative).
example(e141,f58,negative).
example(e141,f59,negative).
example(e141,f60,negative).
example(e141,f61,positive).
example(e141,f62,negative).
example(e141,f63,negative).
example(e141,f64,negative).
example(e141,f65,negative).
example(e141,f66,negative).
example(e141,f67,negative).
example(e141,f68,negative).
example(e141,f69,negative).
example(e141,f70,negative).
example(e141,f71,negative).
example(e141,f72,negative).
example(e141,f73,positive).
example(e141,f74,negative).
example(e141,f75,negative).
example(e141,f76,negative).
example(e141,f77,negative).
example(e141,f78,positive).
example(e141,f79,negative).
example(e141,f80,negative).
example(e141,f81,negative).
example(e141,f82,positive).
example(e141,f83,negative).
example(e141,f84,negative).
example(e141,f85,negative).
example(e142,f1,positive).
example(e142,f2,negative).
example(e142,f3,positive).
example(e142,f4,negative).
example(e142,f5,negative).
example(e142,f6,negative).
example(e142,f7,negative).
example(e142,f8,negative).
example(e142,f9,negative).
example(e142,f10,negative).
example(e142,f11,negative).
example(e142,f12,positive).
example(e142,f13,negative).
example(e142,f14,negative).
example(e142,f15,negative).
example(e142,f16,negative).
example(e142,f17,negative).
example(e142,f18,negative).
example(e142,f19,negative).
example(e142,f20,negative).
example(e142,f21,negative).
example(e142,f22,negative).
example(e142,f23,negative).
example(e142,f24,negative).
example(e142,f25,negative).
example(e142,f26,negative).
example(e142,f27,negative).
example(e142,f28,negative).
example(e142,f29,negative).
example(e142,f30,negative).
example(e142,f31,negative).
example(e142,f32,negative).
example(e142,f33,negative).
example(e142,f34,negative).
example(e142,f35,negative).
example(e142,f36,negative).
example(e142,f37,negative).
example(e142,f38,negative).
example(e142,f39,negative).
example(e142,f40,negative).
example(e142,f41,negative).
example(e142,f42,negative).
example(e142,f43,negative).
example(e142,f44,negative).
example(e142,f45,negative).
example(e142,f46,negative).
example(e142,f47,negative).
example(e142,f48,negative).
example(e142,f49,negative).
example(e142,f50,negative).
example(e142,f51,negative).
example(e142,f52,negative).
example(e142,f53,negative).
example(e142,f54,negative).
example(e142,f55,negative).
example(e142,f56,negative).
example(e142,f57,negative).
example(e142,f58,negative).
example(e142,f59,negative).
example(e142,f60,positive).
example(e142,f61,negative).
example(e142,f62,negative).
example(e142,f63,negative).
example(e142,f64,negative).
example(e142,f65,negative).
example(e142,f66,negative).
example(e142,f67,negative).
example(e142,f68,negative).
example(e142,f69,negative).
example(e142,f70,negative).
example(e142,f71,negative).
example(e142,f72,negative).
example(e142,f73,negative).
example(e142,f74,positive).
example(e142,f75,negative).
example(e142,f76,negative).
example(e142,f77,negative).
example(e142,f78,positive).
example(e142,f79,negative).
example(e142,f80,negative).
example(e142,f81,positive).
example(e142,f82,negative).
example(e142,f83,negative).
example(e142,f84,negative).
example(e142,f85,negative).
example(e143,f1,negative).
example(e143,f2,negative).
example(e143,f3,negative).
example(e143,f4,negative).
example(e143,f5,negative).
example(e143,f6,negative).
example(e143,f7,negative).
example(e143,f8,negative).
example(e143,f9,negative).
example(e143,f10,negative).
example(e143,f11,negative).
example(e143,f12,positive).
example(e143,f13,negative).
example(e143,f14,negative).
example(e143,f15,positive).
example(e143,f16,negative).
example(e143,f17,negative).
example(e143,f18,negative).
example(e143,f19,negative).
example(e143,f20,negative).
example(e143,f21,negative).
example(e143,f22,negative).
example(e143,f23,negative).
example(e143,f24,negative).
example(e143,f25,negative).
example(e143,f26,negative).
example(e143,f27,positive).
example(e143,f28,negative).
example(e143,f29,negative).
example(e143,f30,negative).
example(e143,f31,negative).
example(e143,f32,negative).
example(e143,f33,negative).
example(e143,f34,negative).
example(e143,f35,negative).
example(e143,f36,negative).
example(e143,f37,negative).
example(e143,f38,negative).
example(e143,f39,negative).
example(e143,f40,negative).
example(e143,f41,negative).
example(e143,f42,negative).
example(e143,f43,negative).
example(e143,f44,positive).
example(e143,f45,negative).
example(e143,f46,negative).
example(e143,f47,negative).
example(e143,f48,negative).
example(e143,f49,negative).
example(e143,f50,negative).
example(e143,f51,negative).
example(e143,f52,negative).
example(e143,f53,positive).
example(e143,f54,negative).
example(e143,f55,negative).
example(e143,f56,negative).
example(e143,f57,negative).
example(e143,f58,negative).
example(e143,f59,negative).
example(e143,f60,negative).
example(e143,f61,negative).
example(e143,f62,negative).
example(e143,f63,negative).
example(e143,f64,negative).
example(e143,f65,negative).
example(e143,f66,negative).
example(e143,f67,negative).
example(e143,f68,negative).
example(e143,f69,negative).
example(e143,f70,negative).
example(e143,f71,negative).
example(e143,f72,negative).
example(e143,f73,positive).
example(e143,f74,negative).
example(e143,f75,negative).
example(e143,f76,negative).
example(e143,f77,negative).
example(e143,f78,positive).
example(e143,f79,negative).
example(e143,f80,negative).
example(e143,f81,negative).
example(e143,f82,positive).
example(e143,f83,negative).
example(e143,f84,negative).
example(e143,f85,negative).
example(e144,f1,negative).
example(e144,f2,negative).
example(e144,f3,positive).
example(e144,f4,negative).
example(e144,f5,negative).
example(e144,f6,negative).
example(e144,f7,negative).
example(e144,f8,negative).
example(e144,f9,negative).
example(e144,f10,negative).
example(e144,f11,negative).
example(e144,f12,positive).
example(e144,f13,negative).
example(e144,f14,negative).
example(e144,f15,positive).
example(e144,f16,negative).
example(e144,f17,negative).
example(e144,f18,negative).
example(e144,f19,negative).
example(e144,f20,negative).
example(e144,f21,negative).
example(e144,f22,negative).
example(e144,f23,negative).
example(e144,f24,negative).
example(e144,f25,negative).
example(e144,f26,negative).
example(e144,f27,positive).
example(e144,f28,negative).
example(e144,f29,negative).
example(e144,f30,negative).
example(e144,f31,negative).
example(e144,f32,negative).
example(e144,f33,negative).
example(e144,f34,negative).
example(e144,f35,negative).
example(e144,f36,negative).
example(e144,f37,negative).
example(e144,f38,negative).
example(e144,f39,negative).
example(e144,f40,negative).
example(e144,f41,negative).
example(e144,f42,negative).
example(e144,f43,negative).
example(e144,f44,negative).
example(e144,f45,positive).
example(e144,f46,negative).
example(e144,f47,negative).
example(e144,f48,negative).
example(e144,f49,negative).
example(e144,f50,negative).
example(e144,f51,negative).
example(e144,f52,negative).
example(e144,f53,positive).
example(e144,f54,negative).
example(e144,f55,negative).
example(e144,f56,negative).
example(e144,f57,negative).
example(e144,f58,negative).
example(e144,f59,negative).
example(e144,f60,negative).
example(e144,f61,negative).
example(e144,f62,negative).
example(e144,f63,negative).
example(e144,f64,negative).
example(e144,f65,negative).
example(e144,f66,negative).
example(e144,f67,negative).
example(e144,f68,negative).
example(e144,f69,negative).
example(e144,f70,negative).
example(e144,f71,negative).
example(e144,f72,negative).
example(e144,f73,negative).
example(e144,f74,positive).
example(e144,f75,negative).
example(e144,f76,negative).
example(e144,f77,negative).
example(e144,f78,positive).
example(e144,f79,negative).
example(e144,f80,negative).
example(e144,f81,negative).
example(e144,f82,negative).
example(e144,f83,negative).
example(e144,f84,negative).
example(e144,f85,negative).
example(e145,f1,positive).
example(e145,f2,positive).
example(e145,f3,negative).
example(e145,f4,negative).
example(e145,f5,negative).
example(e145,f6,positive).
example(e145,f7,positive).
example(e145,f8,negative).
example(e145,f9,negative).
example(e145,f10,negative).
example(e145,f11,negative).
example(e145,f12,negative).
example(e145,f13,negative).
example(e145,f14,negative).
example(e145,f15,negative).
example(e145,f16,negative).
example(e145,f17,negative).
example(e145,f18,negative).
example(e145,f19,negative).
example(e145,f20,negative).
example(e145,f21,negative).
example(e145,f22,negative).
example(e145,f23,negative).
example(e145,f24,negative).
example(e145,f25,negative).
example(e145,f26,negative).
example(e145,f27,negative).
example(e145,f28,negative).
example(e145,f29,negative).
example(e145,f30,negative).
example(e145,f31,negative).
example(e145,f32,positive).
example(e145,f33,negative).
example(e145,f34,negative).
example(e145,f35,negative).
example(e145,f36,negative).
example(e145,f37,negative).
example(e145,f38,negative).
example(e145,f39,negative).
example(e145,f40,negative).
example(e145,f41,negative).
example(e145,f42,negative).
example(e145,f43,negative).
example(e145,f44,negative).
example(e145,f45,negative).
example(e145,f46,negative).
example(e145,f47,negative).
example(e145,f48,negative).
example(e145,f49,negative).
example(e145,f50,negative).
example(e145,f51,negative).
example(e145,f52,negative).
example(e145,f53,negative).
example(e145,f54,negative).
example(e145,f55,negative).
example(e145,f56,negative).
example(e145,f57,negative).
example(e145,f58,negative).
example(e145,f59,negative).
example(e145,f60,negative).
example(e145,f61,negative).
example(e145,f62,negative).
example(e145,f63,negative).
example(e145,f64,negative).
example(e145,f65,negative).
example(e145,f66,negative).
example(e145,f67,negative).
example(e145,f68,positive).
example(e145,f69,negative).
example(e145,f70,negative).
example(e145,f71,negative).
example(e145,f72,negative).
example(e145,f73,negative).
example(e145,f74,negative).
example(e145,f75,negative).
example(e145,f76,negative).
example(e145,f77,negative).
example(e145,f78,positive).
example(e145,f79,negative).
example(e145,f80,negative).
example(e145,f81,negative).
example(e145,f82,positive).
example(e145,f83,negative).
example(e145,f84,negative).
example(e145,f85,negative).
example(e146,f1,negative).
example(e146,f2,negative).
example(e146,f3,positive).
example(e146,f4,negative).
example(e146,f5,negative).
example(e146,f6,negative).
example(e146,f7,negative).
example(e146,f8,positive).
example(e146,f9,negative).
example(e146,f10,positive).
example(e146,f11,negative).
example(e146,f12,negative).
example(e146,f13,positive).
example(e146,f14,negative).
example(e146,f15,negative).
example(e146,f16,negative).
example(e146,f17,negative).
example(e146,f18,negative).
example(e146,f19,negative).
example(e146,f20,negative).
example(e146,f21,positive).
example(e146,f22,negative).
example(e146,f23,negative).
example(e146,f24,negative).
example(e146,f25,negative).
example(e146,f26,negative).
example(e146,f27,negative).
example(e146,f28,negative).
example(e146,f29,negative).
example(e146,f30,negative).
example(e146,f31,negative).
example(e146,f32,negative).
example(e146,f33,negative).
example(e146,f34,negative).
example(e146,f35,negative).
example(e146,f36,negative).
example(e146,f37,negative).
example(e146,f38,negative).
example(e146,f39,negative).
example(e146,f40,negative).
example(e146,f41,negative).
example(e146,f42,negative).
example(e146,f43,negative).
example(e146,f44,negative).
example(e146,f45,positive).
example(e146,f46,negative).
example(e146,f47,negative).
example(e146,f48,negative).
example(e146,f49,negative).
example(e146,f50,negative).
example(e146,f51,negative).
example(e146,f52,negative).
example(e146,f53,negative).
example(e146,f54,negative).
example(e146,f55,negative).
example(e146,f56,negative).
example(e146,f57,negative).
example(e146,f58,negative).
example(e146,f59,negative).
example(e146,f60,negative).
example(e146,f61,negative).
example(e146,f62,negative).
example(e146,f63,negative).
example(e146,f64,negative).
example(e146,f65,negative).
example(e146,f66,negative).
example(e146,f67,positive).
example(e146,f68,negative).
example(e146,f69,positive).
example(e146,f70,negative).
example(e146,f71,negative).
example(e146,f72,negative).
example(e146,f73,positive).
example(e146,f74,negative).
example(e146,f75,negative).
example(e146,f76,negative).
example(e146,f77,negative).
example(e146,f78,negative).
example(e146,f79,negative).
example(e146,f80,negative).
example(e146,f81,negative).
example(e146,f82,negative).
example(e146,f83,negative).
example(e146,f84,negative).
example(e146,f85,negative).
example(e147,f1,negative).
example(e147,f2,negative).
example(e147,f3,negative).
example(e147,f4,positive).
example(e147,f5,negative).
example(e147,f6,negative).
example(e147,f7,negative).
example(e147,f8,negative).
example(e147,f9,negative).
example(e147,f10,negative).
example(e147,f11,negative).
example(e147,f12,negative).
example(e147,f13,negative).
example(e147,f14,positive).
example(e147,f15,negative).
example(e147,f16,negative).
example(e147,f17,negative).
example(e147,f18,negative).
example(e147,f19,negative).
example(e147,f20,negative).
example(e147,f21,negative).
example(e147,f22,negative).
example(e147,f23,negative).
example(e147,f24,negative).
example(e147,f25,negative).
example(e147,f26,negative).
example(e147,f27,negative).
example(e147,f28,negative).
example(e147,f29,negative).
example(e147,f30,negative).
example(e147,f31,negative).
example(e147,f32,negative).
example(e147,f33,negative).
example(e147,f34,negative).
example(e147,f35,negative).
example(e147,f36,negative).
example(e147,f37,negative).
example(e147,f38,negative).
example(e147,f39,negative).
example(e147,f40,negative).
example(e147,f41,negative).
example(e147,f42,negative).
example(e147,f43,negative).
example(e147,f44,negative).
example(e147,f45,negative).
example(e147,f46,negative).
example(e147,f47,negative).
example(e147,f48,negative).
example(e147,f49,negative).
example(e147,f50,negative).
example(e147,f51,negative).
example(e147,f52,negative).
example(e147,f53,negative).
example(e147,f54,negative).
example(e147,f55,negative).
example(e147,f56,negative).
example(e147,f57,negative).
example(e147,f58,negative).
example(e147,f59,negative).
example(e147,f60,negative).
example(e147,f61,negative).
example(e147,f62,negative).
example(e147,f63,negative).
example(e147,f64,negative).
example(e147,f65,negative).
example(e147,f66,negative).
example(e147,f67,negative).
example(e147,f68,negative).
example(e147,f69,negative).
example(e147,f70,negative).
example(e147,f71,negative).
example(e147,f72,negative).
example(e147,f73,negative).
example(e147,f74,negative).
example(e147,f75,negative).
example(e147,f76,negative).
example(e147,f77,negative).
example(e147,f78,positive).
example(e147,f79,negative).
example(e147,f80,negative).
example(e147,f81,negative).
example(e147,f82,negative).
example(e147,f83,negative).
example(e147,f84,negative).
example(e147,f85,negative).
example(e148,f1,positive).
example(e148,f2,negative).
example(e148,f3,negative).
example(e148,f4,negative).
example(e148,f5,negative).
example(e148,f6,negative).
example(e148,f7,negative).
example(e148,f8,positive).
example(e148,f9,negative).
example(e148,f10,positive).
example(e148,f11,negative).
example(e148,f12,negative).
example(e148,f13,negative).
example(e148,f14,positive).
example(e148,f15,negative).
example(e148,f16,negative).
example(e148,f17,negative).
example(e148,f18,negative).
example(e148,f19,negative).
example(e148,f20,negative).
example(e148,f21,negative).
example(e148,f22,negative).
example(e148,f23,negative).
example(e148,f24,negative).
example(e148,f25,negative).
example(e148,f26,negative).
example(e148,f27,negative).
example(e148,f28,negative).
example(e148,f29,negative).
example(e148,f30,negative).
example(e148,f31,negative).
example(e148,f32,negative).
example(e148,f33,negative).
example(e148,f34,negative).
example(e148,f35,negative).
example(e148,f36,negative).
example(e148,f37,negative).
example(e148,f38,negative).
example(e148,f39,negative).
example(e148,f40,negative).
example(e148,f41,negative).
example(e148,f42,negative).
example(e148,f43,negative).
example(e148,f44,negative).
example(e148,f45,negative).
example(e148,f46,negative).
example(e148,f47,negative).
example(e148,f48,negative).
example(e148,f49,negative).
example(e148,f50,negative).
example(e148,f51,negative).
example(e148,f52,negative).
example(e148,f53,negative).
example(e148,f54,negative).
example(e148,f55,negative).
example(e148,f56,negative).
example(e148,f57,negative).
example(e148,f58,negative).
example(e148,f59,negative).
example(e148,f60,negative).
example(e148,f61,negative).
example(e148,f62,negative).
example(e148,f63,negative).
example(e148,f64,negative).
example(e148,f65,negative).
example(e148,f66,negative).
example(e148,f67,positive).
example(e148,f68,negative).
example(e148,f69,positive).
example(e148,f70,negative).
example(e148,f71,negative).
example(e148,f72,negative).
example(e148,f73,negative).
example(e148,f74,negative).
example(e148,f75,negative).
example(e148,f76,negative).
example(e148,f77,negative).
example(e148,f78,positive).
example(e148,f79,negative).
example(e148,f80,negative).
example(e148,f81,negative).
example(e148,f82,negative).
example(e148,f83,negative).
example(e148,f84,negative).
example(e148,f85,negative).
example(e149,f1,positive).
example(e149,f2,negative).
example(e149,f3,negative).
example(e149,f4,negative).
example(e149,f5,negative).
example(e149,f6,negative).
example(e149,f7,negative).
example(e149,f8,positive).
example(e149,f9,positive).
example(e149,f10,negative).
example(e149,f11,negative).
example(e149,f12,negative).
example(e149,f13,negative).
example(e149,f14,positive).
example(e149,f15,negative).
example(e149,f16,negative).
example(e149,f17,negative).
example(e149,f18,negative).
example(e149,f19,negative).
example(e149,f20,negative).
example(e149,f21,negative).
example(e149,f22,negative).
example(e149,f23,negative).
example(e149,f24,negative).
example(e149,f25,negative).
example(e149,f26,negative).
example(e149,f27,negative).
example(e149,f28,negative).
example(e149,f29,negative).
example(e149,f30,negative).
example(e149,f31,negative).
example(e149,f32,negative).
example(e149,f33,negative).
example(e149,f34,negative).
example(e149,f35,negative).
example(e149,f36,negative).
example(e149,f37,negative).
example(e149,f38,negative).
example(e149,f39,negative).
example(e149,f40,negative).
example(e149,f41,negative).
example(e149,f42,negative).
example(e149,f43,negative).
example(e149,f44,negative).
example(e149,f45,negative).
example(e149,f46,negative).
example(e149,f47,negative).
example(e149,f48,negative).
example(e149,f49,negative).
example(e149,f50,negative).
example(e149,f51,negative).
example(e149,f52,negative).
example(e149,f53,negative).
example(e149,f54,negative).
example(e149,f55,negative).
example(e149,f56,negative).
example(e149,f57,negative).
example(e149,f58,negative).
example(e149,f59,negative).
example(e149,f60,negative).
example(e149,f61,negative).
example(e149,f62,negative).
example(e149,f63,negative).
example(e149,f64,negative).
example(e149,f65,negative).
example(e149,f66,negative).
example(e149,f67,positive).
example(e149,f68,positive).
example(e149,f69,negative).
example(e149,f70,negative).
example(e149,f71,negative).
example(e149,f72,negative).
example(e149,f73,negative).
example(e149,f74,negative).
example(e149,f75,negative).
example(e149,f76,negative).
example(e149,f77,negative).
example(e149,f78,positive).
example(e149,f79,negative).
example(e149,f80,negative).
example(e149,f81,negative).
example(e149,f82,negative).
example(e149,f83,negative).
example(e149,f84,negative).
example(e149,f85,negative).
example(e150,f1,negative).
example(e150,f2,negative).
example(e150,f3,negative).
example(e150,f4,negative).
example(e150,f5,negative).
example(e150,f6,negative).
example(e150,f7,negative).
example(e150,f8,positive).
example(e150,f9,negative).
example(e150,f10,positive).
example(e150,f11,negative).
example(e150,f12,negative).
example(e150,f13,negative).
example(e150,f14,positive).
example(e150,f15,negative).
example(e150,f16,negative).
example(e150,f17,negative).
example(e150,f18,negative).
example(e150,f19,negative).
example(e150,f20,negative).
example(e150,f21,negative).
example(e150,f22,negative).
example(e150,f23,negative).
example(e150,f24,negative).
example(e150,f25,negative).
example(e150,f26,negative).
example(e150,f27,negative).
example(e150,f28,negative).
example(e150,f29,negative).
example(e150,f30,negative).
example(e150,f31,negative).
example(e150,f32,negative).
example(e150,f33,negative).
example(e150,f34,negative).
example(e150,f35,negative).
example(e150,f36,negative).
example(e150,f37,negative).
example(e150,f38,negative).
example(e150,f39,negative).
example(e150,f40,negative).
example(e150,f41,negative).
example(e150,f42,negative).
example(e150,f43,negative).
example(e150,f44,negative).
example(e150,f45,negative).
example(e150,f46,negative).
example(e150,f47,negative).
example(e150,f48,negative).
example(e150,f49,negative).
example(e150,f50,negative).
example(e150,f51,negative).
example(e150,f52,negative).
example(e150,f53,negative).
example(e150,f54,negative).
example(e150,f55,negative).
example(e150,f56,negative).
example(e150,f57,negative).
example(e150,f58,negative).
example(e150,f59,negative).
example(e150,f60,negative).
example(e150,f61,negative).
example(e150,f62,negative).
example(e150,f63,negative).
example(e150,f64,negative).
example(e150,f65,negative).
example(e150,f66,negative).
example(e150,f67,positive).
example(e150,f68,negative).
example(e150,f69,positive).
example(e150,f70,negative).
example(e150,f71,negative).
example(e150,f72,negative).
example(e150,f73,positive).
example(e150,f74,negative).
example(e150,f75,negative).
example(e150,f76,negative).
example(e150,f77,negative).
example(e150,f78,positive).
example(e150,f79,negative).
example(e150,f80,negative).
example(e150,f81,negative).
example(e150,f82,negative).
example(e150,f83,negative).
example(e150,f84,negative).
example(e150,f85,negative).
example(e151,f1,negative).
example(e151,f2,negative).
example(e151,f3,positive).
example(e151,f4,negative).
example(e151,f5,negative).
example(e151,f6,negative).
example(e151,f7,negative).
example(e151,f8,positive).
example(e151,f9,negative).
example(e151,f10,positive).
example(e151,f11,negative).
example(e151,f12,positive).
example(e151,f13,negative).
example(e151,f14,positive).
example(e151,f15,negative).
example(e151,f16,negative).
example(e151,f17,negative).
example(e151,f18,negative).
example(e151,f19,negative).
example(e151,f20,negative).
example(e151,f21,negative).
example(e151,f22,negative).
example(e151,f23,negative).
example(e151,f24,negative).
example(e151,f25,negative).
example(e151,f26,negative).
example(e151,f27,negative).
example(e151,f28,negative).
example(e151,f29,negative).
example(e151,f30,negative).
example(e151,f31,negative).
example(e151,f32,negative).
example(e151,f33,negative).
example(e151,f34,negative).
example(e151,f35,negative).
example(e151,f36,negative).
example(e151,f37,negative).
example(e151,f38,negative).
example(e151,f39,negative).
example(e151,f40,negative).
example(e151,f41,negative).
example(e151,f42,negative).
example(e151,f43,negative).
example(e151,f44,negative).
example(e151,f45,negative).
example(e151,f46,negative).
example(e151,f47,negative).
example(e151,f48,negative).
example(e151,f49,negative).
example(e151,f50,negative).
example(e151,f51,negative).
example(e151,f52,negative).
example(e151,f53,negative).
example(e151,f54,negative).
example(e151,f55,negative).
example(e151,f56,negative).
example(e151,f57,negative).
example(e151,f58,negative).
example(e151,f59,negative).
example(e151,f60,negative).
example(e151,f61,positive).
example(e151,f62,negative).
example(e151,f63,negative).
example(e151,f64,negative).
example(e151,f65,negative).
example(e151,f66,negative).
example(e151,f67,positive).
example(e151,f68,positive).
example(e151,f69,negative).
example(e151,f70,negative).
example(e151,f71,negative).
example(e151,f72,negative).
example(e151,f73,negative).
example(e151,f74,negative).
example(e151,f75,negative).
example(e151,f76,positive).
example(e151,f77,negative).
example(e151,f78,positive).
example(e151,f79,negative).
example(e151,f80,negative).
example(e151,f81,negative).
example(e151,f82,negative).
example(e151,f83,negative).
example(e151,f84,negative).
example(e151,f85,negative).
example(e152,f1,negative).
example(e152,f2,negative).
example(e152,f3,negative).
example(e152,f4,negative).
example(e152,f5,negative).
example(e152,f6,negative).
example(e152,f7,negative).
example(e152,f8,positive).
example(e152,f9,negative).
example(e152,f10,positive).
example(e152,f11,negative).
example(e152,f12,negative).
example(e152,f13,negative).
example(e152,f14,positive).
example(e152,f15,negative).
example(e152,f16,negative).
example(e152,f17,negative).
example(e152,f18,negative).
example(e152,f19,negative).
example(e152,f20,negative).
example(e152,f21,negative).
example(e152,f22,positive).
example(e152,f23,negative).
example(e152,f24,negative).
example(e152,f25,negative).
example(e152,f26,negative).
example(e152,f27,negative).
example(e152,f28,negative).
example(e152,f29,negative).
example(e152,f30,negative).
example(e152,f31,negative).
example(e152,f32,negative).
example(e152,f33,negative).
example(e152,f34,negative).
example(e152,f35,negative).
example(e152,f36,negative).
example(e152,f37,negative).
example(e152,f38,negative).
example(e152,f39,negative).
example(e152,f40,negative).
example(e152,f41,negative).
example(e152,f42,negative).
example(e152,f43,negative).
example(e152,f44,negative).
example(e152,f45,negative).
example(e152,f46,negative).
example(e152,f47,negative).
example(e152,f48,negative).
example(e152,f49,negative).
example(e152,f50,negative).
example(e152,f51,negative).
example(e152,f52,negative).
example(e152,f53,negative).
example(e152,f54,negative).
example(e152,f55,negative).
example(e152,f56,negative).
example(e152,f57,negative).
example(e152,f58,negative).
example(e152,f59,negative).
example(e152,f60,negative).
example(e152,f61,negative).
example(e152,f62,negative).
example(e152,f63,negative).
example(e152,f64,negative).
example(e152,f65,negative).
example(e152,f66,negative).
example(e152,f67,positive).
example(e152,f68,negative).
example(e152,f69,positive).
example(e152,f70,negative).
example(e152,f71,negative).
example(e152,f72,positive).
example(e152,f73,positive).
example(e152,f74,negative).
example(e152,f75,negative).
example(e152,f76,negative).
example(e152,f77,negative).
example(e152,f78,positive).
example(e152,f79,negative).
example(e152,f80,negative).
example(e152,f81,negative).
example(e152,f82,negative).
example(e152,f83,negative).
example(e152,f84,negative).
example(e152,f85,negative).
example(e153,f1,positive).
example(e153,f2,negative).
example(e153,f3,negative).
example(e153,f4,negative).
example(e153,f5,negative).
example(e153,f6,negative).
example(e153,f7,negative).
example(e153,f8,positive).
example(e153,f9,negative).
example(e153,f10,positive).
example(e153,f11,negative).
example(e153,f12,negative).
example(e153,f13,negative).
example(e153,f14,positive).
example(e153,f15,negative).
example(e153,f16,negative).
example(e153,f17,negative).
example(e153,f18,negative).
example(e153,f19,negative).
example(e153,f20,negative).
example(e153,f21,negative).
example(e153,f22,negative).
example(e153,f23,negative).
example(e153,f24,negative).
example(e153,f25,negative).
example(e153,f26,negative).
example(e153,f27,negative).
example(e153,f28,negative).
example(e153,f29,negative).
example(e153,f30,negative).
example(e153,f31,negative).
example(e153,f32,negative).
example(e153,f33,negative).
example(e153,f34,negative).
example(e153,f35,negative).
example(e153,f36,negative).
example(e153,f37,negative).
example(e153,f38,negative).
example(e153,f39,negative).
example(e153,f40,negative).
example(e153,f41,negative).
example(e153,f42,negative).
example(e153,f43,negative).
example(e153,f44,negative).
example(e153,f45,negative).
example(e153,f46,negative).
example(e153,f47,negative).
example(e153,f48,negative).
example(e153,f49,negative).
example(e153,f50,negative).
example(e153,f51,negative).
example(e153,f52,negative).
example(e153,f53,negative).
example(e153,f54,negative).
example(e153,f55,negative).
example(e153,f56,negative).
example(e153,f57,negative).
example(e153,f58,negative).
example(e153,f59,negative).
example(e153,f60,negative).
example(e153,f61,negative).
example(e153,f62,negative).
example(e153,f63,negative).
example(e153,f64,negative).
example(e153,f65,negative).
example(e153,f66,negative).
example(e153,f67,positive).
example(e153,f68,negative).
example(e153,f69,positive).
example(e153,f70,negative).
example(e153,f71,negative).
example(e153,f72,negative).
example(e153,f73,negative).
example(e153,f74,positive).
example(e153,f75,negative).
example(e153,f76,negative).
example(e153,f77,negative).
example(e153,f78,positive).
example(e153,f79,negative).
example(e153,f80,negative).
example(e153,f81,negative).
example(e153,f82,negative).
example(e153,f83,negative).
example(e153,f84,negative).
example(e153,f85,negative).
example(e154,f1,positive).
example(e154,f2,negative).
example(e154,f3,negative).
example(e154,f4,negative).
example(e154,f5,negative).
example(e154,f6,negative).
example(e154,f7,negative).
example(e154,f8,positive).
example(e154,f9,negative).
example(e154,f10,positive).
example(e154,f11,negative).
example(e154,f12,negative).
example(e154,f13,negative).
example(e154,f14,positive).
example(e154,f15,negative).
example(e154,f16,negative).
example(e154,f17,negative).
example(e154,f18,negative).
example(e154,f19,negative).
example(e154,f20,negative).
example(e154,f21,negative).
example(e154,f22,negative).
example(e154,f23,negative).
example(e154,f24,negative).
example(e154,f25,negative).
example(e154,f26,negative).
example(e154,f27,negative).
example(e154,f28,negative).
example(e154,f29,negative).
example(e154,f30,negative).
example(e154,f31,negative).
example(e154,f32,negative).
example(e154,f33,negative).
example(e154,f34,negative).
example(e154,f35,negative).
example(e154,f36,negative).
example(e154,f37,negative).
example(e154,f38,negative).
example(e154,f39,negative).
example(e154,f40,negative).
example(e154,f41,negative).
example(e154,f42,negative).
example(e154,f43,negative).
example(e154,f44,negative).
example(e154,f45,negative).
example(e154,f46,negative).
example(e154,f47,negative).
example(e154,f48,negative).
example(e154,f49,negative).
example(e154,f50,negative).
example(e154,f51,negative).
example(e154,f52,negative).
example(e154,f53,negative).
example(e154,f54,negative).
example(e154,f55,negative).
example(e154,f56,negative).
example(e154,f57,negative).
example(e154,f58,negative).
example(e154,f59,negative).
example(e154,f60,negative).
example(e154,f61,negative).
example(e154,f62,negative).
example(e154,f63,negative).
example(e154,f64,negative).
example(e154,f65,negative).
example(e154,f66,negative).
example(e154,f67,positive).
example(e154,f68,negative).
example(e154,f69,positive).
example(e154,f70,negative).
example(e154,f71,negative).
example(e154,f72,negative).
example(e154,f73,negative).
example(e154,f74,negative).
example(e154,f75,negative).
example(e154,f76,negative).
example(e154,f77,negative).
example(e154,f78,positive).
example(e154,f79,negative).
example(e154,f80,negative).
example(e154,f81,negative).
example(e154,f82,negative).
example(e154,f83,negative).
example(e154,f84,negative).
example(e154,f85,negative).
example(e155,f1,positive).
example(e155,f2,negative).
example(e155,f3,negative).
example(e155,f4,negative).
example(e155,f5,negative).
example(e155,f6,negative).
example(e155,f7,negative).
example(e155,f8,negative).
example(e155,f9,negative).
example(e155,f10,negative).
example(e155,f11,negative).
example(e155,f12,negative).
example(e155,f13,negative).
example(e155,f14,positive).
example(e155,f15,negative).
example(e155,f16,negative).
example(e155,f17,negative).
example(e155,f18,negative).
example(e155,f19,negative).
example(e155,f20,negative).
example(e155,f21,negative).
example(e155,f22,positive).
example(e155,f23,negative).
example(e155,f24,negative).
example(e155,f25,negative).
example(e155,f26,negative).
example(e155,f27,negative).
example(e155,f28,negative).
example(e155,f29,negative).
example(e155,f30,negative).
example(e155,f31,negative).
example(e155,f32,negative).
example(e155,f33,negative).
example(e155,f34,negative).
example(e155,f35,negative).
example(e155,f36,negative).
example(e155,f37,negative).
example(e155,f38,negative).
example(e155,f39,negative).
example(e155,f40,negative).
example(e155,f41,negative).
example(e155,f42,negative).
example(e155,f43,negative).
example(e155,f44,negative).
example(e155,f45,negative).
example(e155,f46,negative).
example(e155,f47,negative).
example(e155,f48,negative).
example(e155,f49,negative).
example(e155,f50,negative).
example(e155,f51,negative).
example(e155,f52,negative).
example(e155,f53,negative).
example(e155,f54,negative).
example(e155,f55,negative).
example(e155,f56,negative).
example(e155,f57,negative).
example(e155,f58,negative).
example(e155,f59,negative).
example(e155,f60,negative).
example(e155,f61,negative).
example(e155,f62,negative).
example(e155,f63,negative).
example(e155,f64,positive).
example(e155,f65,negative).
example(e155,f66,negative).
example(e155,f67,negative).
example(e155,f68,negative).
example(e155,f69,negative).
example(e155,f70,negative).
example(e155,f71,negative).
example(e155,f72,negative).
example(e155,f73,negative).
example(e155,f74,negative).
example(e155,f75,negative).
example(e155,f76,positive).
example(e155,f77,negative).
example(e155,f78,positive).
example(e155,f79,negative).
example(e155,f80,negative).
example(e155,f81,negative).
example(e155,f82,negative).
example(e155,f83,negative).
example(e155,f84,negative).
example(e155,f85,negative).
example(e156,f1,positive).
example(e156,f2,negative).
example(e156,f3,negative).
example(e156,f4,negative).
example(e156,f5,negative).
example(e156,f6,negative).
example(e156,f7,negative).
example(e156,f8,positive).
example(e156,f9,negative).
example(e156,f10,positive).
example(e156,f11,negative).
example(e156,f12,negative).
example(e156,f13,negative).
example(e156,f14,negative).
example(e156,f15,negative).
example(e156,f16,negative).
example(e156,f17,negative).
example(e156,f18,negative).
example(e156,f19,negative).
example(e156,f20,negative).
example(e156,f21,negative).
example(e156,f22,negative).
example(e156,f23,negative).
example(e156,f24,negative).
example(e156,f25,negative).
example(e156,f26,negative).
example(e156,f27,negative).
example(e156,f28,negative).
example(e156,f29,negative).
example(e156,f30,negative).
example(e156,f31,negative).
example(e156,f32,negative).
example(e156,f33,negative).
example(e156,f34,negative).
example(e156,f35,negative).
example(e156,f36,negative).
example(e156,f37,negative).
example(e156,f38,negative).
example(e156,f39,negative).
example(e156,f40,negative).
example(e156,f41,negative).
example(e156,f42,negative).
example(e156,f43,negative).
example(e156,f44,negative).
example(e156,f45,negative).
example(e156,f46,negative).
example(e156,f47,negative).
example(e156,f48,negative).
example(e156,f49,negative).
example(e156,f50,negative).
example(e156,f51,negative).
example(e156,f52,negative).
example(e156,f53,negative).
example(e156,f54,negative).
example(e156,f55,negative).
example(e156,f56,negative).
example(e156,f57,negative).
example(e156,f58,negative).
example(e156,f59,negative).
example(e156,f60,negative).
example(e156,f61,negative).
example(e156,f62,negative).
example(e156,f63,negative).
example(e156,f64,negative).
example(e156,f65,negative).
example(e156,f66,negative).
example(e156,f67,positive).
example(e156,f68,negative).
example(e156,f69,positive).
example(e156,f70,negative).
example(e156,f71,negative).
example(e156,f72,negative).
example(e156,f73,positive).
example(e156,f74,negative).
example(e156,f75,negative).
example(e156,f76,negative).
example(e156,f77,negative).
example(e156,f78,positive).
example(e156,f79,negative).
example(e156,f80,negative).
example(e156,f81,negative).
example(e156,f82,negative).
example(e156,f83,negative).
example(e156,f84,negative).
example(e156,f85,negative).
example(e157,f1,negative).
example(e157,f2,negative).
example(e157,f3,negative).
example(e157,f4,negative).
example(e157,f5,negative).
example(e157,f6,positive).
example(e157,f7,negative).
example(e157,f8,negative).
example(e157,f9,negative).
example(e157,f10,negative).
example(e157,f11,negative).
example(e157,f12,positive).
example(e157,f13,negative).
example(e157,f14,negative).
example(e157,f15,negative).
example(e157,f16,negative).
example(e157,f17,negative).
example(e157,f18,negative).
example(e157,f19,negative).
example(e157,f20,negative).
example(e157,f21,negative).
example(e157,f22,negative).
example(e157,f23,negative).
example(e157,f24,negative).
example(e157,f25,negative).
example(e157,f26,negative).
example(e157,f27,negative).
example(e157,f28,negative).
example(e157,f29,negative).
example(e157,f30,negative).
example(e157,f31,negative).
example(e157,f32,negative).
example(e157,f33,negative).
example(e157,f34,negative).
example(e157,f35,negative).
example(e157,f36,negative).
example(e157,f37,negative).
example(e157,f38,negative).
example(e157,f39,negative).
example(e157,f40,negative).
example(e157,f41,negative).
example(e157,f42,negative).
example(e157,f43,negative).
example(e157,f44,negative).
example(e157,f45,negative).
example(e157,f46,negative).
example(e157,f47,negative).
example(e157,f48,negative).
example(e157,f49,negative).
example(e157,f50,negative).
example(e157,f51,negative).
example(e157,f52,negative).
example(e157,f53,negative).
example(e157,f54,negative).
example(e157,f55,negative).
example(e157,f56,negative).
example(e157,f57,negative).
example(e157,f58,negative).
example(e157,f59,negative).
example(e157,f60,negative).
example(e157,f61,negative).
example(e157,f62,negative).
example(e157,f63,negative).
example(e157,f64,negative).
example(e157,f65,negative).
example(e157,f66,negative).
example(e157,f67,negative).
example(e157,f68,negative).
example(e157,f69,negative).
example(e157,f70,negative).
example(e157,f71,negative).
example(e157,f72,negative).
example(e157,f73,negative).
example(e157,f74,negative).
example(e157,f75,negative).
example(e157,f76,negative).
example(e157,f77,negative).
example(e157,f78,positive).
example(e157,f79,negative).
example(e157,f80,positive).
example(e157,f81,negative).
example(e157,f82,negative).
example(e157,f83,negative).
example(e157,f84,negative).
example(e157,f85,negative).
example(e158,f1,positive).
example(e158,f2,negative).
example(e158,f3,positive).
example(e158,f4,negative).
example(e158,f5,negative).
example(e158,f6,negative).
example(e158,f7,positive).
example(e158,f8,negative).
example(e158,f9,negative).
example(e158,f10,positive).
example(e158,f11,negative).
example(e158,f12,negative).
example(e158,f13,negative).
example(e158,f14,negative).
example(e158,f15,negative).
example(e158,f16,negative).
example(e158,f17,negative).
example(e158,f18,negative).
example(e158,f19,negative).
example(e158,f20,negative).
example(e158,f21,negative).
example(e158,f22,negative).
example(e158,f23,negative).
example(e158,f24,negative).
example(e158,f25,negative).
example(e158,f26,negative).
example(e158,f27,negative).
example(e158,f28,negative).
example(e158,f29,negative).
example(e158,f30,negative).
example(e158,f31,negative).
example(e158,f32,negative).
example(e158,f33,negative).
example(e158,f34,negative).
example(e158,f35,negative).
example(e158,f36,negative).
example(e158,f37,negative).
example(e158,f38,negative).
example(e158,f39,negative).
example(e158,f40,negative).
example(e158,f41,negative).
example(e158,f42,negative).
example(e158,f43,negative).
example(e158,f44,negative).
example(e158,f45,negative).
example(e158,f46,negative).
example(e158,f47,positive).
example(e158,f48,negative).
example(e158,f49,negative).
example(e158,f50,negative).
example(e158,f51,negative).
example(e158,f52,negative).
example(e158,f53,negative).
example(e158,f54,negative).
example(e158,f55,negative).
example(e158,f56,negative).
example(e158,f57,negative).
example(e158,f58,negative).
example(e158,f59,negative).
example(e158,f60,negative).
example(e158,f61,negative).
example(e158,f62,negative).
example(e158,f63,negative).
example(e158,f64,negative).
example(e158,f65,negative).
example(e158,f66,negative).
example(e158,f67,positive).
example(e158,f68,negative).
example(e158,f69,positive).
example(e158,f70,negative).
example(e158,f71,negative).
example(e158,f72,negative).
example(e158,f73,negative).
example(e158,f74,negative).
example(e158,f75,negative).
example(e158,f76,negative).
example(e158,f77,negative).
example(e158,f78,positive).
example(e158,f79,negative).
example(e158,f80,negative).
example(e158,f81,negative).
example(e158,f82,negative).
example(e158,f83,negative).
example(e158,f84,negative).
example(e158,f85,negative).
example(e159,f1,negative).
example(e159,f2,negative).
example(e159,f3,negative).
example(e159,f4,negative).
example(e159,f5,negative).
example(e159,f6,negative).
example(e159,f7,negative).
example(e159,f8,positive).
example(e159,f9,negative).
example(e159,f10,positive).
example(e159,f11,negative).
example(e159,f12,negative).
example(e159,f13,negative).
example(e159,f14,negative).
example(e159,f15,negative).
example(e159,f16,negative).
example(e159,f17,negative).
example(e159,f18,negative).
example(e159,f19,negative).
example(e159,f20,negative).
example(e159,f21,negative).
example(e159,f22,negative).
example(e159,f23,negative).
example(e159,f24,negative).
example(e159,f25,negative).
example(e159,f26,negative).
example(e159,f27,negative).
example(e159,f28,negative).
example(e159,f29,negative).
example(e159,f30,negative).
example(e159,f31,negative).
example(e159,f32,negative).
example(e159,f33,negative).
example(e159,f34,negative).
example(e159,f35,negative).
example(e159,f36,negative).
example(e159,f37,negative).
example(e159,f38,negative).
example(e159,f39,negative).
example(e159,f40,negative).
example(e159,f41,negative).
example(e159,f42,negative).
example(e159,f43,negative).
example(e159,f44,negative).
example(e159,f45,negative).
example(e159,f46,negative).
example(e159,f47,negative).
example(e159,f48,negative).
example(e159,f49,negative).
example(e159,f50,negative).
example(e159,f51,negative).
example(e159,f52,negative).
example(e159,f53,negative).
example(e159,f54,negative).
example(e159,f55,negative).
example(e159,f56,negative).
example(e159,f57,negative).
example(e159,f58,negative).
example(e159,f59,negative).
example(e159,f60,negative).
example(e159,f61,positive).
example(e159,f62,negative).
example(e159,f63,negative).
example(e159,f64,negative).
example(e159,f65,negative).
example(e159,f66,negative).
example(e159,f67,positive).
example(e159,f68,negative).
example(e159,f69,positive).
example(e159,f70,negative).
example(e159,f71,negative).
example(e159,f72,negative).
example(e159,f73,negative).
example(e159,f74,negative).
example(e159,f75,negative).
example(e159,f76,negative).
example(e159,f77,negative).
example(e159,f78,positive).
example(e159,f79,negative).
example(e159,f80,negative).
example(e159,f81,negative).
example(e159,f82,negative).
example(e159,f83,negative).
example(e159,f84,negative).
example(e159,f85,negative).
example(e160,f1,negative).
example(e160,f2,negative).
example(e160,f3,negative).
example(e160,f4,negative).
example(e160,f5,positive).
example(e160,f6,positive).
example(e160,f7,negative).
example(e160,f8,negative).
example(e160,f9,negative).
example(e160,f10,negative).
example(e160,f11,negative).
example(e160,f12,positive).
example(e160,f13,negative).
example(e160,f14,negative).
example(e160,f15,negative).
example(e160,f16,negative).
example(e160,f17,negative).
example(e160,f18,negative).
example(e160,f19,negative).
example(e160,f20,negative).
example(e160,f21,negative).
example(e160,f22,negative).
example(e160,f23,negative).
example(e160,f24,negative).
example(e160,f25,negative).
example(e160,f26,negative).
example(e160,f27,negative).
example(e160,f28,negative).
example(e160,f29,negative).
example(e160,f30,negative).
example(e160,f31,negative).
example(e160,f32,negative).
example(e160,f33,negative).
example(e160,f34,negative).
example(e160,f35,negative).
example(e160,f36,negative).
example(e160,f37,negative).
example(e160,f38,negative).
example(e160,f39,negative).
example(e160,f40,negative).
example(e160,f41,negative).
example(e160,f42,negative).
example(e160,f43,negative).
example(e160,f44,negative).
example(e160,f45,negative).
example(e160,f46,negative).
example(e160,f47,negative).
example(e160,f48,negative).
example(e160,f49,negative).
example(e160,f50,negative).
example(e160,f51,negative).
example(e160,f52,negative).
example(e160,f53,negative).
example(e160,f54,negative).
example(e160,f55,negative).
example(e160,f56,negative).
example(e160,f57,negative).
example(e160,f58,negative).
example(e160,f59,negative).
example(e160,f60,negative).
example(e160,f61,negative).
example(e160,f62,negative).
example(e160,f63,negative).
example(e160,f64,negative).
example(e160,f65,negative).
example(e160,f66,negative).
example(e160,f67,negative).
example(e160,f68,negative).
example(e160,f69,negative).
example(e160,f70,negative).
example(e160,f71,negative).
example(e160,f72,negative).
example(e160,f73,negative).
example(e160,f74,positive).
example(e160,f75,negative).
example(e160,f76,negative).
example(e160,f77,negative).
example(e160,f78,positive).
example(e160,f79,negative).
example(e160,f80,positive).
example(e160,f81,negative).
example(e160,f82,negative).
example(e160,f83,negative).
example(e160,f84,negative).
example(e160,f85,negative).
example(e161,f1,negative).
example(e161,f2,negative).
example(e161,f3,negative).
example(e161,f4,negative).
example(e161,f5,positive).
example(e161,f6,positive).
example(e161,f7,negative).
example(e161,f8,negative).
example(e161,f9,negative).
example(e161,f10,negative).
example(e161,f11,negative).
example(e161,f12,positive).
example(e161,f13,negative).
example(e161,f14,negative).
example(e161,f15,negative).
example(e161,f16,negative).
example(e161,f17,negative).
example(e161,f18,negative).
example(e161,f19,negative).
example(e161,f20,negative).
example(e161,f21,negative).
example(e161,f22,negative).
example(e161,f23,negative).
example(e161,f24,negative).
example(e161,f25,negative).
example(e161,f26,negative).
example(e161,f27,negative).
example(e161,f28,negative).
example(e161,f29,negative).
example(e161,f30,negative).
example(e161,f31,negative).
example(e161,f32,negative).
example(e161,f33,negative).
example(e161,f34,negative).
example(e161,f35,negative).
example(e161,f36,negative).
example(e161,f37,negative).
example(e161,f38,negative).
example(e161,f39,negative).
example(e161,f40,negative).
example(e161,f41,negative).
example(e161,f42,negative).
example(e161,f43,negative).
example(e161,f44,negative).
example(e161,f45,negative).
example(e161,f46,negative).
example(e161,f47,negative).
example(e161,f48,negative).
example(e161,f49,negative).
example(e161,f50,negative).
example(e161,f51,negative).
example(e161,f52,negative).
example(e161,f53,negative).
example(e161,f54,negative).
example(e161,f55,negative).
example(e161,f56,negative).
example(e161,f57,negative).
example(e161,f58,negative).
example(e161,f59,negative).
example(e161,f60,negative).
example(e161,f61,negative).
example(e161,f62,negative).
example(e161,f63,negative).
example(e161,f64,negative).
example(e161,f65,negative).
example(e161,f66,negative).
example(e161,f67,negative).
example(e161,f68,negative).
example(e161,f69,negative).
example(e161,f70,negative).
example(e161,f71,negative).
example(e161,f72,negative).
example(e161,f73,negative).
example(e161,f74,positive).
example(e161,f75,negative).
example(e161,f76,negative).
example(e161,f77,negative).
example(e161,f78,positive).
example(e161,f79,negative).
example(e161,f80,positive).
example(e161,f81,negative).
example(e161,f82,negative).
example(e161,f83,negative).
example(e161,f84,negative).
example(e161,f85,negative).
example(e162,f1,positive).
example(e162,f2,negative).
example(e162,f3,negative).
example(e162,f4,negative).
example(e162,f5,negative).
example(e162,f6,negative).
example(e162,f7,negative).
example(e162,f8,positive).
example(e162,f9,negative).
example(e162,f10,positive).
example(e162,f11,negative).
example(e162,f12,negative).
example(e162,f13,negative).
example(e162,f14,negative).
example(e162,f15,negative).
example(e162,f16,negative).
example(e162,f17,negative).
example(e162,f18,negative).
example(e162,f19,negative).
example(e162,f20,negative).
example(e162,f21,negative).
example(e162,f22,negative).
example(e162,f23,negative).
example(e162,f24,negative).
example(e162,f25,negative).
example(e162,f26,negative).
example(e162,f27,negative).
example(e162,f28,negative).
example(e162,f29,negative).
example(e162,f30,negative).
example(e162,f31,negative).
example(e162,f32,negative).
example(e162,f33,negative).
example(e162,f34,negative).
example(e162,f35,negative).
example(e162,f36,negative).
example(e162,f37,negative).
example(e162,f38,negative).
example(e162,f39,negative).
example(e162,f40,negative).
example(e162,f41,negative).
example(e162,f42,negative).
example(e162,f43,negative).
example(e162,f44,negative).
example(e162,f45,negative).
example(e162,f46,negative).
example(e162,f47,negative).
example(e162,f48,negative).
example(e162,f49,negative).
example(e162,f50,negative).
example(e162,f51,negative).
example(e162,f52,negative).
example(e162,f53,negative).
example(e162,f54,negative).
example(e162,f55,negative).
example(e162,f56,negative).
example(e162,f57,negative).
example(e162,f58,negative).
example(e162,f59,negative).
example(e162,f60,negative).
example(e162,f61,negative).
example(e162,f62,negative).
example(e162,f63,negative).
example(e162,f64,negative).
example(e162,f65,negative).
example(e162,f66,negative).
example(e162,f67,positive).
example(e162,f68,negative).
example(e162,f69,positive).
example(e162,f70,negative).
example(e162,f71,negative).
example(e162,f72,negative).
example(e162,f73,negative).
example(e162,f74,negative).
example(e162,f75,negative).
example(e162,f76,positive).
example(e162,f77,negative).
example(e162,f78,positive).
example(e162,f79,negative).
example(e162,f80,negative).
example(e162,f81,negative).
example(e162,f82,negative).
example(e162,f83,negative).
example(e162,f84,negative).
example(e162,f85,negative).
example(e163,f1,negative).
example(e163,f2,negative).
example(e163,f3,positive).
example(e163,f4,negative).
example(e163,f5,negative).
example(e163,f6,negative).
example(e163,f7,negative).
example(e163,f8,positive).
example(e163,f9,negative).
example(e163,f10,positive).
example(e163,f11,negative).
example(e163,f12,negative).
example(e163,f13,negative).
example(e163,f14,negative).
example(e163,f15,negative).
example(e163,f16,negative).
example(e163,f17,negative).
example(e163,f18,negative).
example(e163,f19,negative).
example(e163,f20,negative).
example(e163,f21,negative).
example(e163,f22,negative).
example(e163,f23,negative).
example(e163,f24,negative).
example(e163,f25,negative).
example(e163,f26,negative).
example(e163,f27,negative).
example(e163,f28,negative).
example(e163,f29,negative).
example(e163,f30,negative).
example(e163,f31,negative).
example(e163,f32,negative).
example(e163,f33,negative).
example(e163,f34,negative).
example(e163,f35,negative).
example(e163,f36,negative).
example(e163,f37,negative).
example(e163,f38,negative).
example(e163,f39,negative).
example(e163,f40,negative).
example(e163,f41,negative).
example(e163,f42,negative).
example(e163,f43,negative).
example(e163,f44,negative).
example(e163,f45,negative).
example(e163,f46,negative).
example(e163,f47,negative).
example(e163,f48,negative).
example(e163,f49,negative).
example(e163,f50,negative).
example(e163,f51,negative).
example(e163,f52,negative).
example(e163,f53,negative).
example(e163,f54,negative).
example(e163,f55,negative).
example(e163,f56,negative).
example(e163,f57,negative).
example(e163,f58,negative).
example(e163,f59,negative).
example(e163,f60,negative).
example(e163,f61,negative).
example(e163,f62,negative).
example(e163,f63,negative).
example(e163,f64,negative).
example(e163,f65,negative).
example(e163,f66,negative).
example(e163,f67,positive).
example(e163,f68,negative).
example(e163,f69,positive).
example(e163,f70,negative).
example(e163,f71,negative).
example(e163,f72,negative).
example(e163,f73,positive).
example(e163,f74,negative).
example(e163,f75,negative).
example(e163,f76,negative).
example(e163,f77,negative).
example(e163,f78,positive).
example(e163,f79,negative).
example(e163,f80,negative).
example(e163,f81,negative).
example(e163,f82,negative).
example(e163,f83,negative).
example(e163,f84,negative).
example(e163,f85,negative).
example(e164,f1,negative).
example(e164,f2,negative).
example(e164,f3,negative).
example(e164,f4,negative).
example(e164,f5,negative).
example(e164,f6,negative).
example(e164,f7,negative).
example(e164,f8,positive).
example(e164,f9,negative).
example(e164,f10,positive).
example(e164,f11,negative).
example(e164,f12,negative).
example(e164,f13,negative).
example(e164,f14,positive).
example(e164,f15,negative).
example(e164,f16,negative).
example(e164,f17,negative).
example(e164,f18,negative).
example(e164,f19,negative).
example(e164,f20,negative).
example(e164,f21,negative).
example(e164,f22,negative).
example(e164,f23,negative).
example(e164,f24,negative).
example(e164,f25,negative).
example(e164,f26,negative).
example(e164,f27,negative).
example(e164,f28,negative).
example(e164,f29,negative).
example(e164,f30,negative).
example(e164,f31,negative).
example(e164,f32,negative).
example(e164,f33,negative).
example(e164,f34,negative).
example(e164,f35,negative).
example(e164,f36,negative).
example(e164,f37,negative).
example(e164,f38,negative).
example(e164,f39,negative).
example(e164,f40,negative).
example(e164,f41,negative).
example(e164,f42,negative).
example(e164,f43,negative).
example(e164,f44,negative).
example(e164,f45,negative).
example(e164,f46,negative).
example(e164,f47,negative).
example(e164,f48,negative).
example(e164,f49,negative).
example(e164,f50,negative).
example(e164,f51,negative).
example(e164,f52,negative).
example(e164,f53,negative).
example(e164,f54,negative).
example(e164,f55,negative).
example(e164,f56,negative).
example(e164,f57,negative).
example(e164,f58,negative).
example(e164,f59,positive).
example(e164,f60,negative).
example(e164,f61,negative).
example(e164,f62,negative).
example(e164,f63,negative).
example(e164,f64,negative).
example(e164,f65,negative).
example(e164,f66,negative).
example(e164,f67,positive).
example(e164,f68,negative).
example(e164,f69,positive).
example(e164,f70,negative).
example(e164,f71,negative).
example(e164,f72,negative).
example(e164,f73,negative).
example(e164,f74,negative).
example(e164,f75,negative).
example(e164,f76,negative).
example(e164,f77,negative).
example(e164,f78,positive).
example(e164,f79,negative).
example(e164,f80,negative).
example(e164,f81,negative).
example(e164,f82,negative).
example(e164,f83,negative).
example(e164,f84,negative).
example(e164,f85,negative).
example(e165,f1,positive).
example(e165,f2,positive).
example(e165,f3,negative).
example(e165,f4,negative).
example(e165,f5,negative).
example(e165,f6,negative).
example(e165,f7,negative).
example(e165,f8,positive).
example(e165,f9,negative).
example(e165,f10,positive).
example(e165,f11,negative).
example(e165,f12,negative).
example(e165,f13,negative).
example(e165,f14,positive).
example(e165,f15,negative).
example(e165,f16,negative).
example(e165,f17,negative).
example(e165,f18,negative).
example(e165,f19,negative).
example(e165,f20,negative).
example(e165,f21,negative).
example(e165,f22,positive).
example(e165,f23,negative).
example(e165,f24,negative).
example(e165,f25,negative).
example(e165,f26,negative).
example(e165,f27,negative).
example(e165,f28,negative).
example(e165,f29,negative).
example(e165,f30,negative).
example(e165,f31,negative).
example(e165,f32,negative).
example(e165,f33,negative).
example(e165,f34,negative).
example(e165,f35,negative).
example(e165,f36,negative).
example(e165,f37,negative).
example(e165,f38,negative).
example(e165,f39,negative).
example(e165,f40,negative).
example(e165,f41,negative).
example(e165,f42,negative).
example(e165,f43,negative).
example(e165,f44,negative).
example(e165,f45,negative).
example(e165,f46,negative).
example(e165,f47,negative).
example(e165,f48,negative).
example(e165,f49,negative).
example(e165,f50,negative).
example(e165,f51,negative).
example(e165,f52,negative).
example(e165,f53,negative).
example(e165,f54,negative).
example(e165,f55,negative).
example(e165,f56,negative).
example(e165,f57,negative).
example(e165,f58,negative).
example(e165,f59,negative).
example(e165,f60,negative).
example(e165,f61,negative).
example(e165,f62,negative).
example(e165,f63,negative).
example(e165,f64,negative).
example(e165,f65,negative).
example(e165,f66,positive).
example(e165,f67,negative).
example(e165,f68,positive).
example(e165,f69,negative).
example(e165,f70,negative).
example(e165,f71,negative).
example(e165,f72,negative).
example(e165,f73,negative).
example(e165,f74,negative).
example(e165,f75,negative).
example(e165,f76,negative).
example(e165,f77,positive).
example(e165,f78,positive).
example(e165,f79,negative).
example(e165,f80,negative).
example(e165,f81,negative).
example(e165,f82,negative).
example(e165,f83,negative).
example(e165,f84,negative).
example(e165,f85,negative).
example(e166,f1,positive).
example(e166,f2,negative).
example(e166,f3,negative).
example(e166,f4,negative).
example(e166,f5,negative).
example(e166,f6,negative).
example(e166,f7,positive).
example(e166,f8,negative).
example(e166,f9,positive).
example(e166,f10,negative).
example(e166,f11,negative).
example(e166,f12,negative).
example(e166,f13,negative).
example(e166,f14,positive).
example(e166,f15,negative).
example(e166,f16,negative).
example(e166,f17,negative).
example(e166,f18,negative).
example(e166,f19,negative).
example(e166,f20,negative).
example(e166,f21,negative).
example(e166,f22,positive).
example(e166,f23,negative).
example(e166,f24,negative).
example(e166,f25,negative).
example(e166,f26,negative).
example(e166,f27,negative).
example(e166,f28,negative).
example(e166,f29,negative).
example(e166,f30,negative).
example(e166,f31,negative).
example(e166,f32,negative).
example(e166,f33,negative).
example(e166,f34,negative).
example(e166,f35,negative).
example(e166,f36,negative).
example(e166,f37,negative).
example(e166,f38,negative).
example(e166,f39,negative).
example(e166,f40,negative).
example(e166,f41,negative).
example(e166,f42,negative).
example(e166,f43,negative).
example(e166,f44,negative).
example(e166,f45,negative).
example(e166,f46,negative).
example(e166,f47,negative).
example(e166,f48,negative).
example(e166,f49,negative).
example(e166,f50,negative).
example(e166,f51,negative).
example(e166,f52,negative).
example(e166,f53,negative).
example(e166,f54,negative).
example(e166,f55,negative).
example(e166,f56,negative).
example(e166,f57,negative).
example(e166,f58,negative).
example(e166,f59,negative).
example(e166,f60,negative).
example(e166,f61,negative).
example(e166,f62,negative).
example(e166,f63,negative).
example(e166,f64,negative).
example(e166,f65,negative).
example(e166,f66,negative).
example(e166,f67,positive).
example(e166,f68,negative).
example(e166,f69,positive).
example(e166,f70,negative).
example(e166,f71,negative).
example(e166,f72,negative).
example(e166,f73,negative).
example(e166,f74,negative).
example(e166,f75,negative).
example(e166,f76,negative).
example(e166,f77,positive).
example(e166,f78,positive).
example(e166,f79,negative).
example(e166,f80,negative).
example(e166,f81,negative).
example(e166,f82,negative).
example(e166,f83,negative).
example(e166,f84,negative).
example(e166,f85,negative).
example(e167,f1,negative).
example(e167,f2,negative).
example(e167,f3,positive).
example(e167,f4,negative).
example(e167,f5,negative).
example(e167,f6,negative).
example(e167,f7,negative).
example(e167,f8,positive).
example(e167,f9,negative).
example(e167,f10,positive).
example(e167,f11,negative).
example(e167,f12,negative).
example(e167,f13,negative).
example(e167,f14,negative).
example(e167,f15,negative).
example(e167,f16,negative).
example(e167,f17,positive).
example(e167,f18,negative).
example(e167,f19,negative).
example(e167,f20,negative).
example(e167,f21,positive).
example(e167,f22,negative).
example(e167,f23,negative).
example(e167,f24,negative).
example(e167,f25,positive).
example(e167,f26,negative).
example(e167,f27,negative).
example(e167,f28,negative).
example(e167,f29,negative).
example(e167,f30,negative).
example(e167,f31,negative).
example(e167,f32,negative).
example(e167,f33,negative).
example(e167,f34,negative).
example(e167,f35,negative).
example(e167,f36,negative).
example(e167,f37,negative).
example(e167,f38,negative).
example(e167,f39,negative).
example(e167,f40,negative).
example(e167,f41,negative).
example(e167,f42,negative).
example(e167,f43,negative).
example(e167,f44,negative).
example(e167,f45,negative).
example(e167,f46,negative).
example(e167,f47,negative).
example(e167,f48,negative).
example(e167,f49,negative).
example(e167,f50,negative).
example(e167,f51,negative).
example(e167,f52,negative).
example(e167,f53,negative).
example(e167,f54,negative).
example(e167,f55,negative).
example(e167,f56,negative).
example(e167,f57,negative).
example(e167,f58,negative).
example(e167,f59,negative).
example(e167,f60,negative).
example(e167,f61,negative).
example(e167,f62,negative).
example(e167,f63,negative).
example(e167,f64,negative).
example(e167,f65,negative).
example(e167,f66,negative).
example(e167,f67,positive).
example(e167,f68,negative).
example(e167,f69,positive).
example(e167,f70,negative).
example(e167,f71,negative).
example(e167,f72,negative).
example(e167,f73,positive).
example(e167,f74,negative).
example(e167,f75,negative).
example(e167,f76,negative).
example(e167,f77,negative).
example(e167,f78,negative).
example(e167,f79,negative).
example(e167,f80,negative).
example(e167,f81,negative).
example(e167,f82,negative).
example(e167,f83,negative).
example(e167,f84,negative).
example(e167,f85,positive).
example(e168,f1,positive).
example(e168,f2,negative).
example(e168,f3,negative).
example(e168,f4,negative).
example(e168,f5,negative).
example(e168,f6,negative).
example(e168,f7,negative).
example(e168,f8,positive).
example(e168,f9,negative).
example(e168,f10,positive).
example(e168,f11,negative).
example(e168,f12,negative).
example(e168,f13,negative).
example(e168,f14,negative).
example(e168,f15,negative).
example(e168,f16,negative).
example(e168,f17,negative).
example(e168,f18,negative).
example(e168,f19,negative).
example(e168,f20,negative).
example(e168,f21,negative).
example(e168,f22,negative).
example(e168,f23,negative).
example(e168,f24,negative).
example(e168,f25,negative).
example(e168,f26,negative).
example(e168,f27,negative).
example(e168,f28,negative).
example(e168,f29,negative).
example(e168,f30,negative).
example(e168,f31,negative).
example(e168,f32,negative).
example(e168,f33,negative).
example(e168,f34,negative).
example(e168,f35,negative).
example(e168,f36,negative).
example(e168,f37,negative).
example(e168,f38,negative).
example(e168,f39,negative).
example(e168,f40,negative).
example(e168,f41,negative).
example(e168,f42,negative).
example(e168,f43,negative).
example(e168,f44,negative).
example(e168,f45,negative).
example(e168,f46,negative).
example(e168,f47,negative).
example(e168,f48,negative).
example(e168,f49,negative).
example(e168,f50,negative).
example(e168,f51,negative).
example(e168,f52,negative).
example(e168,f53,negative).
example(e168,f54,negative).
example(e168,f55,negative).
example(e168,f56,negative).
example(e168,f57,negative).
example(e168,f58,negative).
example(e168,f59,negative).
example(e168,f60,negative).
example(e168,f61,negative).
example(e168,f62,negative).
example(e168,f63,negative).
example(e168,f64,negative).
example(e168,f65,negative).
example(e168,f66,negative).
example(e168,f67,positive).
example(e168,f68,negative).
example(e168,f69,positive).
example(e168,f70,negative).
example(e168,f71,negative).
example(e168,f72,negative).
example(e168,f73,negative).
example(e168,f74,negative).
example(e168,f75,negative).
example(e168,f76,negative).
example(e168,f77,negative).
example(e168,f78,positive).
example(e168,f79,negative).
example(e168,f80,negative).
example(e168,f81,negative).
example(e168,f82,negative).
example(e168,f83,negative).
example(e168,f84,negative).
example(e168,f85,negative).
example(e169,f1,positive).
example(e169,f2,negative).
example(e169,f3,negative).
example(e169,f4,negative).
example(e169,f5,negative).
example(e169,f6,negative).
example(e169,f7,negative).
example(e169,f8,positive).
example(e169,f9,negative).
example(e169,f10,positive).
example(e169,f11,negative).
example(e169,f12,negative).
example(e169,f13,negative).
example(e169,f14,negative).
example(e169,f15,negative).
example(e169,f16,negative).
example(e169,f17,negative).
example(e169,f18,negative).
example(e169,f19,negative).
example(e169,f20,negative).
example(e169,f21,negative).
example(e169,f22,negative).
example(e169,f23,negative).
example(e169,f24,negative).
example(e169,f25,negative).
example(e169,f26,negative).
example(e169,f27,negative).
example(e169,f28,negative).
example(e169,f29,negative).
example(e169,f30,negative).
example(e169,f31,negative).
example(e169,f32,negative).
example(e169,f33,negative).
example(e169,f34,negative).
example(e169,f35,negative).
example(e169,f36,negative).
example(e169,f37,negative).
example(e169,f38,negative).
example(e169,f39,negative).
example(e169,f40,negative).
example(e169,f41,negative).
example(e169,f42,negative).
example(e169,f43,negative).
example(e169,f44,negative).
example(e169,f45,negative).
example(e169,f46,negative).
example(e169,f47,negative).
example(e169,f48,negative).
example(e169,f49,negative).
example(e169,f50,negative).
example(e169,f51,negative).
example(e169,f52,negative).
example(e169,f53,negative).
example(e169,f54,negative).
example(e169,f55,negative).
example(e169,f56,negative).
example(e169,f57,negative).
example(e169,f58,negative).
example(e169,f59,negative).
example(e169,f60,negative).
example(e169,f61,negative).
example(e169,f62,negative).
example(e169,f63,negative).
example(e169,f64,negative).
example(e169,f65,negative).
example(e169,f66,negative).
example(e169,f67,positive).
example(e169,f68,negative).
example(e169,f69,positive).
example(e169,f70,negative).
example(e169,f71,negative).
example(e169,f72,negative).
example(e169,f73,negative).
example(e169,f74,negative).
example(e169,f75,negative).
example(e169,f76,positive).
example(e169,f77,negative).
example(e169,f78,positive).
example(e169,f79,negative).
example(e169,f80,negative).
example(e169,f81,negative).
example(e169,f82,negative).
example(e169,f83,negative).
example(e169,f84,negative).
example(e169,f85,negative).
example(e170,f1,negative).
example(e170,f2,negative).
example(e170,f3,positive).
example(e170,f4,negative).
example(e170,f5,negative).
example(e170,f6,negative).
example(e170,f7,negative).
example(e170,f8,positive).
example(e170,f9,negative).
example(e170,f10,positive).
example(e170,f11,negative).
example(e170,f12,negative).
example(e170,f13,negative).
example(e170,f14,negative).
example(e170,f15,negative).
example(e170,f16,negative).
example(e170,f17,negative).
example(e170,f18,negative).
example(e170,f19,negative).
example(e170,f20,negative).
example(e170,f21,negative).
example(e170,f22,positive).
example(e170,f23,negative).
example(e170,f24,negative).
example(e170,f25,negative).
example(e170,f26,negative).
example(e170,f27,negative).
example(e170,f28,negative).
example(e170,f29,negative).
example(e170,f30,negative).
example(e170,f31,negative).
example(e170,f32,negative).
example(e170,f33,negative).
example(e170,f34,negative).
example(e170,f35,negative).
example(e170,f36,negative).
example(e170,f37,negative).
example(e170,f38,negative).
example(e170,f39,negative).
example(e170,f40,negative).
example(e170,f41,negative).
example(e170,f42,negative).
example(e170,f43,negative).
example(e170,f44,negative).
example(e170,f45,negative).
example(e170,f46,negative).
example(e170,f47,negative).
example(e170,f48,negative).
example(e170,f49,negative).
example(e170,f50,negative).
example(e170,f51,negative).
example(e170,f52,negative).
example(e170,f53,negative).
example(e170,f54,negative).
example(e170,f55,negative).
example(e170,f56,negative).
example(e170,f57,negative).
example(e170,f58,negative).
example(e170,f59,negative).
example(e170,f60,negative).
example(e170,f61,positive).
example(e170,f62,negative).
example(e170,f63,negative).
example(e170,f64,negative).
example(e170,f65,positive).
example(e170,f66,negative).
example(e170,f67,positive).
example(e170,f68,negative).
example(e170,f69,positive).
example(e170,f70,negative).
example(e170,f71,negative).
example(e170,f72,negative).
example(e170,f73,positive).
example(e170,f74,negative).
example(e170,f75,negative).
example(e170,f76,negative).
example(e170,f77,negative).
example(e170,f78,positive).
example(e170,f79,negative).
example(e170,f80,negative).
example(e170,f81,negative).
example(e170,f82,negative).
example(e170,f83,negative).
example(e170,f84,negative).
example(e170,f85,negative).
example(e171,f1,positive).
example(e171,f2,negative).
example(e171,f3,negative).
example(e171,f4,negative).
example(e171,f5,negative).
example(e171,f6,negative).
example(e171,f7,negative).
example(e171,f8,positive).
example(e171,f9,negative).
example(e171,f10,positive).
example(e171,f11,negative).
example(e171,f12,negative).
example(e171,f13,negative).
example(e171,f14,negative).
example(e171,f15,negative).
example(e171,f16,negative).
example(e171,f17,negative).
example(e171,f18,negative).
example(e171,f19,negative).
example(e171,f20,negative).
example(e171,f21,negative).
example(e171,f22,negative).
example(e171,f23,negative).
example(e171,f24,negative).
example(e171,f25,negative).
example(e171,f26,negative).
example(e171,f27,negative).
example(e171,f28,negative).
example(e171,f29,negative).
example(e171,f30,negative).
example(e171,f31,negative).
example(e171,f32,negative).
example(e171,f33,negative).
example(e171,f34,negative).
example(e171,f35,negative).
example(e171,f36,negative).
example(e171,f37,negative).
example(e171,f38,negative).
example(e171,f39,negative).
example(e171,f40,negative).
example(e171,f41,negative).
example(e171,f42,negative).
example(e171,f43,negative).
example(e171,f44,negative).
example(e171,f45,negative).
example(e171,f46,negative).
example(e171,f47,negative).
example(e171,f48,negative).
example(e171,f49,negative).
example(e171,f50,negative).
example(e171,f51,negative).
example(e171,f52,negative).
example(e171,f53,negative).
example(e171,f54,negative).
example(e171,f55,negative).
example(e171,f56,negative).
example(e171,f57,negative).
example(e171,f58,negative).
example(e171,f59,negative).
example(e171,f60,negative).
example(e171,f61,negative).
example(e171,f62,negative).
example(e171,f63,negative).
example(e171,f64,negative).
example(e171,f65,negative).
example(e171,f66,negative).
example(e171,f67,positive).
example(e171,f68,negative).
example(e171,f69,positive).
example(e171,f70,negative).
example(e171,f71,negative).
example(e171,f72,negative).
example(e171,f73,positive).
example(e171,f74,negative).
example(e171,f75,negative).
example(e171,f76,negative).
example(e171,f77,negative).
example(e171,f78,positive).
example(e171,f79,negative).
example(e171,f80,negative).
example(e171,f81,negative).
example(e171,f82,negative).
example(e171,f83,negative).
example(e171,f84,negative).
example(e171,f85,negative).
example(e172,f1,negative).
example(e172,f2,negative).
example(e172,f3,positive).
example(e172,f4,negative).
example(e172,f5,negative).
example(e172,f6,negative).
example(e172,f7,negative).
example(e172,f8,positive).
example(e172,f9,positive).
example(e172,f10,negative).
example(e172,f11,negative).
example(e172,f12,negative).
example(e172,f13,negative).
example(e172,f14,negative).
example(e172,f15,negative).
example(e172,f16,negative).
example(e172,f17,negative).
example(e172,f18,negative).
example(e172,f19,negative).
example(e172,f20,negative).
example(e172,f21,negative).
example(e172,f22,positive).
example(e172,f23,negative).
example(e172,f24,negative).
example(e172,f25,negative).
example(e172,f26,negative).
example(e172,f27,negative).
example(e172,f28,negative).
example(e172,f29,negative).
example(e172,f30,negative).
example(e172,f31,negative).
example(e172,f32,negative).
example(e172,f33,negative).
example(e172,f34,negative).
example(e172,f35,negative).
example(e172,f36,negative).
example(e172,f37,negative).
example(e172,f38,negative).
example(e172,f39,negative).
example(e172,f40,negative).
example(e172,f41,negative).
example(e172,f42,negative).
example(e172,f43,negative).
example(e172,f44,negative).
example(e172,f45,negative).
example(e172,f46,positive).
example(e172,f47,negative).
example(e172,f48,negative).
example(e172,f49,negative).
example(e172,f50,negative).
example(e172,f51,negative).
example(e172,f52,negative).
example(e172,f53,negative).
example(e172,f54,negative).
example(e172,f55,negative).
example(e172,f56,negative).
example(e172,f57,negative).
example(e172,f58,negative).
example(e172,f59,negative).
example(e172,f60,negative).
example(e172,f61,negative).
example(e172,f62,negative).
example(e172,f63,negative).
example(e172,f64,negative).
example(e172,f65,positive).
example(e172,f66,negative).
example(e172,f67,positive).
example(e172,f68,negative).
example(e172,f69,positive).
example(e172,f70,negative).
example(e172,f71,negative).
example(e172,f72,negative).
example(e172,f73,positive).
example(e172,f74,negative).
example(e172,f75,negative).
example(e172,f76,negative).
example(e172,f77,negative).
example(e172,f78,positive).
example(e172,f79,negative).
example(e172,f80,negative).
example(e172,f81,negative).
example(e172,f82,negative).
example(e172,f83,negative).
example(e172,f84,negative).
example(e172,f85,negative).
example(e173,f1,negative).
example(e173,f2,negative).
example(e173,f3,positive).
example(e173,f4,negative).
example(e173,f5,negative).
example(e173,f6,negative).
example(e173,f7,negative).
example(e173,f8,positive).
example(e173,f9,negative).
example(e173,f10,positive).
example(e173,f11,negative).
example(e173,f12,negative).
example(e173,f13,negative).
example(e173,f14,negative).
example(e173,f15,negative).
example(e173,f16,negative).
example(e173,f17,negative).
example(e173,f18,negative).
example(e173,f19,negative).
example(e173,f20,negative).
example(e173,f21,negative).
example(e173,f22,positive).
example(e173,f23,negative).
example(e173,f24,negative).
example(e173,f25,negative).
example(e173,f26,negative).
example(e173,f27,negative).
example(e173,f28,negative).
example(e173,f29,negative).
example(e173,f30,negative).
example(e173,f31,negative).
example(e173,f32,negative).
example(e173,f33,negative).
example(e173,f34,negative).
example(e173,f35,negative).
example(e173,f36,negative).
example(e173,f37,negative).
example(e173,f38,negative).
example(e173,f39,negative).
example(e173,f40,negative).
example(e173,f41,negative).
example(e173,f42,negative).
example(e173,f43,negative).
example(e173,f44,negative).
example(e173,f45,positive).
example(e173,f46,negative).
example(e173,f47,negative).
example(e173,f48,negative).
example(e173,f49,negative).
example(e173,f50,negative).
example(e173,f51,negative).
example(e173,f52,negative).
example(e173,f53,negative).
example(e173,f54,negative).
example(e173,f55,negative).
example(e173,f56,negative).
example(e173,f57,negative).
example(e173,f58,negative).
example(e173,f59,negative).
example(e173,f60,negative).
example(e173,f61,negative).
example(e173,f62,negative).
example(e173,f63,negative).
example(e173,f64,negative).
example(e173,f65,positive).
example(e173,f66,negative).
example(e173,f67,positive).
example(e173,f68,positive).
example(e173,f69,negative).
example(e173,f70,negative).
example(e173,f71,negative).
example(e173,f72,negative).
example(e173,f73,positive).
example(e173,f74,negative).
example(e173,f75,negative).
example(e173,f76,negative).
example(e173,f77,negative).
example(e173,f78,positive).
example(e173,f79,negative).
example(e173,f80,negative).
example(e173,f81,negative).
example(e173,f82,negative).
example(e173,f83,negative).
example(e173,f84,negative).
example(e173,f85,negative).
example(e174,f1,negative).
example(e174,f2,negative).
example(e174,f3,negative).
example(e174,f4,negative).
example(e174,f5,negative).
example(e174,f6,negative).
example(e174,f7,negative).
example(e174,f8,positive).
example(e174,f9,negative).
example(e174,f10,positive).
example(e174,f11,negative).
example(e174,f12,negative).
example(e174,f13,negative).
example(e174,f14,negative).
example(e174,f15,negative).
example(e174,f16,negative).
example(e174,f17,negative).
example(e174,f18,negative).
example(e174,f19,negative).
example(e174,f20,negative).
example(e174,f21,negative).
example(e174,f22,negative).
example(e174,f23,negative).
example(e174,f24,negative).
example(e174,f25,negative).
example(e174,f26,negative).
example(e174,f27,negative).
example(e174,f28,negative).
example(e174,f29,negative).
example(e174,f30,negative).
example(e174,f31,negative).
example(e174,f32,negative).
example(e174,f33,negative).
example(e174,f34,negative).
example(e174,f35,negative).
example(e174,f36,negative).
example(e174,f37,negative).
example(e174,f38,negative).
example(e174,f39,negative).
example(e174,f40,negative).
example(e174,f41,negative).
example(e174,f42,negative).
example(e174,f43,negative).
example(e174,f44,negative).
example(e174,f45,negative).
example(e174,f46,negative).
example(e174,f47,negative).
example(e174,f48,negative).
example(e174,f49,negative).
example(e174,f50,negative).
example(e174,f51,positive).
example(e174,f52,negative).
example(e174,f53,negative).
example(e174,f54,negative).
example(e174,f55,negative).
example(e174,f56,negative).
example(e174,f57,negative).
example(e174,f58,negative).
example(e174,f59,negative).
example(e174,f60,negative).
example(e174,f61,negative).
example(e174,f62,negative).
example(e174,f63,negative).
example(e174,f64,negative).
example(e174,f65,negative).
example(e174,f66,negative).
example(e174,f67,positive).
example(e174,f68,negative).
example(e174,f69,positive).
example(e174,f70,negative).
example(e174,f71,negative).
example(e174,f72,negative).
example(e174,f73,positive).
example(e174,f74,negative).
example(e174,f75,negative).
example(e174,f76,negative).
example(e174,f77,negative).
example(e174,f78,positive).
example(e174,f79,negative).
example(e174,f80,negative).
example(e174,f81,negative).
example(e174,f82,negative).
example(e174,f83,negative).
example(e174,f84,negative).
example(e174,f85,negative).
example(e175,f1,negative).
example(e175,f2,negative).
example(e175,f3,negative).
example(e175,f4,negative).
example(e175,f5,negative).
example(e175,f6,negative).
example(e175,f7,negative).
example(e175,f8,positive).
example(e175,f9,negative).
example(e175,f10,positive).
example(e175,f11,negative).
example(e175,f12,negative).
example(e175,f13,negative).
example(e175,f14,negative).
example(e175,f15,negative).
example(e175,f16,negative).
example(e175,f17,negative).
example(e175,f18,negative).
example(e175,f19,negative).
example(e175,f20,negative).
example(e175,f21,negative).
example(e175,f22,negative).
example(e175,f23,negative).
example(e175,f24,negative).
example(e175,f25,negative).
example(e175,f26,negative).
example(e175,f27,negative).
example(e175,f28,negative).
example(e175,f29,negative).
example(e175,f30,negative).
example(e175,f31,negative).
example(e175,f32,negative).
example(e175,f33,negative).
example(e175,f34,negative).
example(e175,f35,negative).
example(e175,f36,negative).
example(e175,f37,negative).
example(e175,f38,negative).
example(e175,f39,negative).
example(e175,f40,negative).
example(e175,f41,negative).
example(e175,f42,negative).
example(e175,f43,negative).
example(e175,f44,negative).
example(e175,f45,negative).
example(e175,f46,negative).
example(e175,f47,negative).
example(e175,f48,negative).
example(e175,f49,negative).
example(e175,f50,negative).
example(e175,f51,negative).
example(e175,f52,positive).
example(e175,f53,negative).
example(e175,f54,negative).
example(e175,f55,negative).
example(e175,f56,negative).
example(e175,f57,negative).
example(e175,f58,negative).
example(e175,f59,negative).
example(e175,f60,negative).
example(e175,f61,negative).
example(e175,f62,negative).
example(e175,f63,negative).
example(e175,f64,negative).
example(e175,f65,negative).
example(e175,f66,negative).
example(e175,f67,positive).
example(e175,f68,negative).
example(e175,f69,positive).
example(e175,f70,negative).
example(e175,f71,negative).
example(e175,f72,negative).
example(e175,f73,positive).
example(e175,f74,negative).
example(e175,f75,negative).
example(e175,f76,negative).
example(e175,f77,negative).
example(e175,f78,positive).
example(e175,f79,negative).
example(e175,f80,negative).
example(e175,f81,negative).
example(e175,f82,negative).
example(e175,f83,negative).
example(e175,f84,negative).
example(e175,f85,negative).
example(e176,f1,negative).
example(e176,f2,negative).
example(e176,f3,positive).
example(e176,f4,negative).
example(e176,f5,negative).
example(e176,f6,negative).
example(e176,f7,negative).
example(e176,f8,positive).
example(e176,f9,negative).
example(e176,f10,positive).
example(e176,f11,negative).
example(e176,f12,negative).
example(e176,f13,negative).
example(e176,f14,negative).
example(e176,f15,negative).
example(e176,f16,negative).
example(e176,f17,positive).
example(e176,f18,positive).
example(e176,f19,negative).
example(e176,f20,negative).
example(e176,f21,negative).
example(e176,f22,negative).
example(e176,f23,positive).
example(e176,f24,negative).
example(e176,f25,negative).
example(e176,f26,negative).
example(e176,f27,negative).
example(e176,f28,negative).
example(e176,f29,negative).
example(e176,f30,negative).
example(e176,f31,negative).
example(e176,f32,negative).
example(e176,f33,negative).
example(e176,f34,negative).
example(e176,f35,negative).
example(e176,f36,negative).
example(e176,f37,negative).
example(e176,f38,negative).
example(e176,f39,negative).
example(e176,f40,negative).
example(e176,f41,negative).
example(e176,f42,negative).
example(e176,f43,negative).
example(e176,f44,positive).
example(e176,f45,negative).
example(e176,f46,negative).
example(e176,f47,negative).
example(e176,f48,negative).
example(e176,f49,negative).
example(e176,f50,negative).
example(e176,f51,negative).
example(e176,f52,negative).
example(e176,f53,negative).
example(e176,f54,negative).
example(e176,f55,negative).
example(e176,f56,negative).
example(e176,f57,negative).
example(e176,f58,negative).
example(e176,f59,negative).
example(e176,f60,negative).
example(e176,f61,negative).
example(e176,f62,negative).
example(e176,f63,negative).
example(e176,f64,negative).
example(e176,f65,negative).
example(e176,f66,negative).
example(e176,f67,positive).
example(e176,f68,negative).
example(e176,f69,positive).
example(e176,f70,negative).
example(e176,f71,negative).
example(e176,f72,negative).
example(e176,f73,positive).
example(e176,f74,negative).
example(e176,f75,negative).
example(e176,f76,negative).
example(e176,f77,negative).
example(e176,f78,negative).
example(e176,f79,negative).
example(e176,f80,negative).
example(e176,f81,negative).
example(e176,f82,negative).
example(e176,f83,negative).
example(e176,f84,negative).
example(e176,f85,negative).
example(e177,f1,positive).
example(e177,f2,negative).
example(e177,f3,positive).
example(e177,f4,negative).
example(e177,f5,negative).
example(e177,f6,negative).
example(e177,f7,negative).
example(e177,f8,positive).
example(e177,f9,negative).
example(e177,f10,positive).
example(e177,f11,negative).
example(e177,f12,positive).
example(e177,f13,negative).
example(e177,f14,negative).
example(e177,f15,negative).
example(e177,f16,negative).
example(e177,f17,positive).
example(e177,f18,negative).
example(e177,f19,negative).
example(e177,f20,negative).
example(e177,f21,positive).
example(e177,f22,negative).
example(e177,f23,negative).
example(e177,f24,negative).
example(e177,f25,negative).
example(e177,f26,negative).
example(e177,f27,negative).
example(e177,f28,negative).
example(e177,f29,negative).
example(e177,f30,negative).
example(e177,f31,negative).
example(e177,f32,negative).
example(e177,f33,negative).
example(e177,f34,negative).
example(e177,f35,negative).
example(e177,f36,negative).
example(e177,f37,negative).
example(e177,f38,negative).
example(e177,f39,negative).
example(e177,f40,negative).
example(e177,f41,negative).
example(e177,f42,negative).
example(e177,f43,negative).
example(e177,f44,negative).
example(e177,f45,negative).
example(e177,f46,negative).
example(e177,f47,negative).
example(e177,f48,negative).
example(e177,f49,negative).
example(e177,f50,negative).
example(e177,f51,negative).
example(e177,f52,negative).
example(e177,f53,negative).
example(e177,f54,negative).
example(e177,f55,negative).
example(e177,f56,negative).
example(e177,f57,negative).
example(e177,f58,negative).
example(e177,f59,negative).
example(e177,f60,negative).
example(e177,f61,negative).
example(e177,f62,negative).
example(e177,f63,negative).
example(e177,f64,negative).
example(e177,f65,negative).
example(e177,f66,negative).
example(e177,f67,positive).
example(e177,f68,negative).
example(e177,f69,positive).
example(e177,f70,negative).
example(e177,f71,negative).
example(e177,f72,negative).
example(e177,f73,positive).
example(e177,f74,negative).
example(e177,f75,negative).
example(e177,f76,negative).
example(e177,f77,negative).
example(e177,f78,positive).
example(e177,f79,negative).
example(e177,f80,negative).
example(e177,f81,negative).
example(e177,f82,negative).
example(e177,f83,negative).
example(e177,f84,negative).
example(e177,f85,negative).
example(e178,f1,negative).
example(e178,f2,negative).
example(e178,f3,positive).
example(e178,f4,negative).
example(e178,f5,negative).
example(e178,f6,negative).
example(e178,f7,negative).
example(e178,f8,positive).
example(e178,f9,negative).
example(e178,f10,positive).
example(e178,f11,negative).
example(e178,f12,negative).
example(e178,f13,negative).
example(e178,f14,negative).
example(e178,f15,negative).
example(e178,f16,negative).
example(e178,f17,negative).
example(e178,f18,negative).
example(e178,f19,negative).
example(e178,f20,negative).
example(e178,f21,negative).
example(e178,f22,positive).
example(e178,f23,negative).
example(e178,f24,negative).
example(e178,f25,negative).
example(e178,f26,negative).
example(e178,f27,negative).
example(e178,f28,negative).
example(e178,f29,negative).
example(e178,f30,negative).
example(e178,f31,negative).
example(e178,f32,negative).
example(e178,f33,negative).
example(e178,f34,negative).
example(e178,f35,negative).
example(e178,f36,negative).
example(e178,f37,negative).
example(e178,f38,negative).
example(e178,f39,negative).
example(e178,f40,negative).
example(e178,f41,negative).
example(e178,f42,negative).
example(e178,f43,negative).
example(e178,f44,negative).
example(e178,f45,positive).
example(e178,f46,negative).
example(e178,f47,negative).
example(e178,f48,negative).
example(e178,f49,negative).
example(e178,f50,negative).
example(e178,f51,negative).
example(e178,f52,negative).
example(e178,f53,negative).
example(e178,f54,negative).
example(e178,f55,negative).
example(e178,f56,negative).
example(e178,f57,negative).
example(e178,f58,negative).
example(e178,f59,negative).
example(e178,f60,negative).
example(e178,f61,negative).
example(e178,f62,negative).
example(e178,f63,negative).
example(e178,f64,negative).
example(e178,f65,positive).
example(e178,f66,negative).
example(e178,f67,positive).
example(e178,f68,negative).
example(e178,f69,positive).
example(e178,f70,negative).
example(e178,f71,negative).
example(e178,f72,negative).
example(e178,f73,positive).
example(e178,f74,negative).
example(e178,f75,negative).
example(e178,f76,negative).
example(e178,f77,negative).
example(e178,f78,positive).
example(e178,f79,negative).
example(e178,f80,negative).
example(e178,f81,negative).
example(e178,f82,negative).
example(e178,f83,negative).
example(e178,f84,negative).
example(e178,f85,negative).
example(e179,f1,negative).
example(e179,f2,negative).
example(e179,f3,positive).
example(e179,f4,negative).
example(e179,f5,negative).
example(e179,f6,negative).
example(e179,f7,negative).
example(e179,f8,positive).
example(e179,f9,negative).
example(e179,f10,positive).
example(e179,f11,negative).
example(e179,f12,negative).
example(e179,f13,negative).
example(e179,f14,negative).
example(e179,f15,negative).
example(e179,f16,negative).
example(e179,f17,negative).
example(e179,f18,negative).
example(e179,f19,negative).
example(e179,f20,negative).
example(e179,f21,negative).
example(e179,f22,positive).
example(e179,f23,negative).
example(e179,f24,negative).
example(e179,f25,negative).
example(e179,f26,negative).
example(e179,f27,negative).
example(e179,f28,negative).
example(e179,f29,negative).
example(e179,f30,negative).
example(e179,f31,negative).
example(e179,f32,negative).
example(e179,f33,negative).
example(e179,f34,negative).
example(e179,f35,negative).
example(e179,f36,negative).
example(e179,f37,negative).
example(e179,f38,negative).
example(e179,f39,negative).
example(e179,f40,negative).
example(e179,f41,negative).
example(e179,f42,negative).
example(e179,f43,negative).
example(e179,f44,negative).
example(e179,f45,negative).
example(e179,f46,negative).
example(e179,f47,negative).
example(e179,f48,negative).
example(e179,f49,negative).
example(e179,f50,negative).
example(e179,f51,negative).
example(e179,f52,negative).
example(e179,f53,negative).
example(e179,f54,negative).
example(e179,f55,negative).
example(e179,f56,negative).
example(e179,f57,negative).
example(e179,f58,negative).
example(e179,f59,negative).
example(e179,f60,positive).
example(e179,f61,negative).
example(e179,f62,negative).
example(e179,f63,negative).
example(e179,f64,negative).
example(e179,f65,positive).
example(e179,f66,negative).
example(e179,f67,positive).
example(e179,f68,negative).
example(e179,f69,positive).
example(e179,f70,negative).
example(e179,f71,negative).
example(e179,f72,negative).
example(e179,f73,negative).
example(e179,f74,negative).
example(e179,f75,negative).
example(e179,f76,negative).
example(e179,f77,negative).
example(e179,f78,positive).
example(e179,f79,negative).
example(e179,f80,negative).
example(e179,f81,negative).
example(e179,f82,negative).
example(e179,f83,negative).
example(e179,f84,negative).
example(e179,f85,negative).
example(e180,f1,positive).
example(e180,f2,negative).
example(e180,f3,negative).
example(e180,f4,negative).
example(e180,f5,negative).
example(e180,f6,negative).
example(e180,f7,negative).
example(e180,f8,positive).
example(e180,f9,negative).
example(e180,f10,positive).
example(e180,f11,negative).
example(e180,f12,negative).
example(e180,f13,positive).
example(e180,f14,negative).
example(e180,f15,negative).
example(e180,f16,negative).
example(e180,f17,negative).
example(e180,f18,negative).
example(e180,f19,negative).
example(e180,f20,negative).
example(e180,f21,positive).
example(e180,f22,positive).
example(e180,f23,negative).
example(e180,f24,negative).
example(e180,f25,positive).
example(e180,f26,positive).
example(e180,f27,negative).
example(e180,f28,negative).
example(e180,f29,negative).
example(e180,f30,negative).
example(e180,f31,negative).
example(e180,f32,negative).
example(e180,f33,positive).
example(e180,f34,negative).
example(e180,f35,negative).
example(e180,f36,negative).
example(e180,f37,negative).
example(e180,f38,negative).
example(e180,f39,negative).
example(e180,f40,negative).
example(e180,f41,negative).
example(e180,f42,negative).
example(e180,f43,negative).
example(e180,f44,negative).
example(e180,f45,negative).
example(e180,f46,negative).
example(e180,f47,negative).
example(e180,f48,negative).
example(e180,f49,negative).
example(e180,f50,negative).
example(e180,f51,negative).
example(e180,f52,negative).
example(e180,f53,negative).
example(e180,f54,negative).
example(e180,f55,negative).
example(e180,f56,negative).
example(e180,f57,negative).
example(e180,f58,negative).
example(e180,f59,negative).
example(e180,f60,negative).
example(e180,f61,negative).
example(e180,f62,negative).
example(e180,f63,negative).
example(e180,f64,negative).
example(e180,f65,negative).
example(e180,f66,positive).
example(e180,f67,negative).
example(e180,f68,negative).
example(e180,f69,positive).
example(e180,f70,negative).
example(e180,f71,negative).
example(e180,f72,negative).
example(e180,f73,negative).
example(e180,f74,positive).
example(e180,f75,negative).
example(e180,f76,negative).
example(e180,f77,negative).
example(e180,f78,positive).
example(e180,f79,negative).
example(e180,f80,negative).
example(e180,f81,negative).
example(e180,f82,negative).
example(e180,f83,negative).
example(e180,f84,negative).
example(e180,f85,negative).
example(e181,f1,negative).
example(e181,f2,negative).
example(e181,f3,negative).
example(e181,f4,negative).
example(e181,f5,negative).
example(e181,f6,negative).
example(e181,f7,negative).
example(e181,f8,positive).
example(e181,f9,negative).
example(e181,f10,positive).
example(e181,f11,negative).
example(e181,f12,negative).
example(e181,f13,negative).
example(e181,f14,negative).
example(e181,f15,negative).
example(e181,f16,negative).
example(e181,f17,positive).
example(e181,f18,negative).
example(e181,f19,negative).
example(e181,f20,negative).
example(e181,f21,positive).
example(e181,f22,positive).
example(e181,f23,negative).
example(e181,f24,negative).
example(e181,f25,positive).
example(e181,f26,positive).
example(e181,f27,negative).
example(e181,f28,negative).
example(e181,f29,negative).
example(e181,f30,negative).
example(e181,f31,negative).
example(e181,f32,negative).
example(e181,f33,negative).
example(e181,f34,negative).
example(e181,f35,negative).
example(e181,f36,negative).
example(e181,f37,negative).
example(e181,f38,negative).
example(e181,f39,negative).
example(e181,f40,negative).
example(e181,f41,negative).
example(e181,f42,negative).
example(e181,f43,negative).
example(e181,f44,negative).
example(e181,f45,negative).
example(e181,f46,positive).
example(e181,f47,negative).
example(e181,f48,negative).
example(e181,f49,negative).
example(e181,f50,negative).
example(e181,f51,negative).
example(e181,f52,negative).
example(e181,f53,negative).
example(e181,f54,negative).
example(e181,f55,negative).
example(e181,f56,negative).
example(e181,f57,negative).
example(e181,f58,negative).
example(e181,f59,negative).
example(e181,f60,negative).
example(e181,f61,negative).
example(e181,f62,negative).
example(e181,f63,negative).
example(e181,f64,negative).
example(e181,f65,negative).
example(e181,f66,negative).
example(e181,f67,positive).
example(e181,f68,negative).
example(e181,f69,positive).
example(e181,f70,negative).
example(e181,f71,negative).
example(e181,f72,negative).
example(e181,f73,positive).
example(e181,f74,negative).
example(e181,f75,negative).
example(e181,f76,negative).
example(e181,f77,negative).
example(e181,f78,positive).
example(e181,f79,negative).
example(e181,f80,negative).
example(e181,f81,negative).
example(e181,f82,negative).
example(e181,f83,negative).
example(e181,f84,negative).
example(e181,f85,negative).
example(e182,f1,positive).
example(e182,f2,negative).
example(e182,f3,positive).
example(e182,f4,negative).
example(e182,f5,negative).
example(e182,f6,negative).
example(e182,f7,negative).
example(e182,f8,positive).
example(e182,f9,negative).
example(e182,f10,positive).
example(e182,f11,negative).
example(e182,f12,negative).
example(e182,f13,negative).
example(e182,f14,negative).
example(e182,f15,negative).
example(e182,f16,negative).
example(e182,f17,negative).
example(e182,f18,negative).
example(e182,f19,negative).
example(e182,f20,negative).
example(e182,f21,negative).
example(e182,f22,negative).
example(e182,f23,negative).
example(e182,f24,negative).
example(e182,f25,negative).
example(e182,f26,negative).
example(e182,f27,negative).
example(e182,f28,negative).
example(e182,f29,negative).
example(e182,f30,negative).
example(e182,f31,negative).
example(e182,f32,negative).
example(e182,f33,negative).
example(e182,f34,negative).
example(e182,f35,negative).
example(e182,f36,negative).
example(e182,f37,negative).
example(e182,f38,negative).
example(e182,f39,negative).
example(e182,f40,negative).
example(e182,f41,negative).
example(e182,f42,negative).
example(e182,f43,negative).
example(e182,f44,negative).
example(e182,f45,negative).
example(e182,f46,negative).
example(e182,f47,positive).
example(e182,f48,negative).
example(e182,f49,negative).
example(e182,f50,negative).
example(e182,f51,negative).
example(e182,f52,negative).
example(e182,f53,negative).
example(e182,f54,negative).
example(e182,f55,negative).
example(e182,f56,negative).
example(e182,f57,negative).
example(e182,f58,negative).
example(e182,f59,negative).
example(e182,f60,negative).
example(e182,f61,negative).
example(e182,f62,negative).
example(e182,f63,negative).
example(e182,f64,negative).
example(e182,f65,negative).
example(e182,f66,negative).
example(e182,f67,positive).
example(e182,f68,negative).
example(e182,f69,positive).
example(e182,f70,negative).
example(e182,f71,negative).
example(e182,f72,negative).
example(e182,f73,positive).
example(e182,f74,negative).
example(e182,f75,negative).
example(e182,f76,negative).
example(e182,f77,negative).
example(e182,f78,positive).
example(e182,f79,negative).
example(e182,f80,negative).
example(e182,f81,negative).
example(e182,f82,negative).
example(e182,f83,negative).
example(e182,f84,negative).
example(e182,f85,negative).
example(e183,f1,negative).
example(e183,f2,negative).
example(e183,f3,positive).
example(e183,f4,negative).
example(e183,f5,negative).
example(e183,f6,negative).
example(e183,f7,negative).
example(e183,f8,positive).
example(e183,f9,negative).
example(e183,f10,positive).
example(e183,f11,negative).
example(e183,f12,positive).
example(e183,f13,negative).
example(e183,f14,negative).
example(e183,f15,negative).
example(e183,f16,negative).
example(e183,f17,negative).
example(e183,f18,negative).
example(e183,f19,negative).
example(e183,f20,negative).
example(e183,f21,negative).
example(e183,f22,positive).
example(e183,f23,negative).
example(e183,f24,negative).
example(e183,f25,negative).
example(e183,f26,negative).
example(e183,f27,negative).
example(e183,f28,negative).
example(e183,f29,negative).
example(e183,f30,negative).
example(e183,f31,negative).
example(e183,f32,negative).
example(e183,f33,negative).
example(e183,f34,negative).
example(e183,f35,negative).
example(e183,f36,negative).
example(e183,f37,negative).
example(e183,f38,negative).
example(e183,f39,negative).
example(e183,f40,negative).
example(e183,f41,negative).
example(e183,f42,negative).
example(e183,f43,negative).
example(e183,f44,negative).
example(e183,f45,negative).
example(e183,f46,negative).
example(e183,f47,negative).
example(e183,f48,negative).
example(e183,f49,negative).
example(e183,f50,negative).
example(e183,f51,negative).
example(e183,f52,negative).
example(e183,f53,negative).
example(e183,f54,negative).
example(e183,f55,negative).
example(e183,f56,negative).
example(e183,f57,negative).
example(e183,f58,negative).
example(e183,f59,negative).
example(e183,f60,negative).
example(e183,f61,negative).
example(e183,f62,negative).
example(e183,f63,negative).
example(e183,f64,negative).
example(e183,f65,negative).
example(e183,f66,negative).
example(e183,f67,positive).
example(e183,f68,negative).
example(e183,f69,positive).
example(e183,f70,negative).
example(e183,f71,negative).
example(e183,f72,negative).
example(e183,f73,positive).
example(e183,f74,negative).
example(e183,f75,negative).
example(e183,f76,negative).
example(e183,f77,negative).
example(e183,f78,positive).
example(e183,f79,negative).
example(e183,f80,negative).
example(e183,f81,negative).
example(e183,f82,negative).
example(e183,f83,negative).
example(e183,f84,negative).
example(e183,f85,negative).
example(e184,f1,positive).
example(e184,f2,negative).
example(e184,f3,negative).
example(e184,f4,negative).
example(e184,f5,negative).
example(e184,f6,negative).
example(e184,f7,negative).
example(e184,f8,positive).
example(e184,f9,negative).
example(e184,f10,positive).
example(e184,f11,negative).
example(e184,f12,negative).
example(e184,f13,negative).
example(e184,f14,negative).
example(e184,f15,negative).
example(e184,f16,negative).
example(e184,f17,negative).
example(e184,f18,negative).
example(e184,f19,negative).
example(e184,f20,negative).
example(e184,f21,negative).
example(e184,f22,positive).
example(e184,f23,negative).
example(e184,f24,negative).
example(e184,f25,negative).
example(e184,f26,negative).
example(e184,f27,negative).
example(e184,f28,negative).
example(e184,f29,negative).
example(e184,f30,negative).
example(e184,f31,negative).
example(e184,f32,negative).
example(e184,f33,positive).
example(e184,f34,negative).
example(e184,f35,negative).
example(e184,f36,negative).
example(e184,f37,negative).
example(e184,f38,negative).
example(e184,f39,negative).
example(e184,f40,negative).
example(e184,f41,negative).
example(e184,f42,negative).
example(e184,f43,negative).
example(e184,f44,negative).
example(e184,f45,negative).
example(e184,f46,negative).
example(e184,f47,negative).
example(e184,f48,negative).
example(e184,f49,negative).
example(e184,f50,negative).
example(e184,f51,negative).
example(e184,f52,negative).
example(e184,f53,negative).
example(e184,f54,negative).
example(e184,f55,negative).
example(e184,f56,negative).
example(e184,f57,negative).
example(e184,f58,negative).
example(e184,f59,negative).
example(e184,f60,negative).
example(e184,f61,negative).
example(e184,f62,negative).
example(e184,f63,negative).
example(e184,f64,positive).
example(e184,f65,negative).
example(e184,f66,negative).
example(e184,f67,positive).
example(e184,f68,negative).
example(e184,f69,positive).
example(e184,f70,negative).
example(e184,f71,negative).
example(e184,f72,negative).
example(e184,f73,negative).
example(e184,f74,negative).
example(e184,f75,negative).
example(e184,f76,negative).
example(e184,f77,positive).
example(e184,f78,positive).
example(e184,f79,negative).
example(e184,f80,negative).
example(e184,f81,negative).
example(e184,f82,negative).
example(e184,f83,negative).
example(e184,f84,negative).
example(e184,f85,negative).
example(e185,f1,positive).
example(e185,f2,negative).
example(e185,f3,negative).
example(e185,f4,negative).
example(e185,f5,negative).
example(e185,f6,negative).
example(e185,f7,negative).
example(e185,f8,positive).
example(e185,f9,negative).
example(e185,f10,positive).
example(e185,f11,negative).
example(e185,f12,negative).
example(e185,f13,negative).
example(e185,f14,negative).
example(e185,f15,negative).
example(e185,f16,negative).
example(e185,f17,negative).
example(e185,f18,negative).
example(e185,f19,negative).
example(e185,f20,negative).
example(e185,f21,negative).
example(e185,f22,positive).
example(e185,f23,negative).
example(e185,f24,negative).
example(e185,f25,negative).
example(e185,f26,negative).
example(e185,f27,negative).
example(e185,f28,negative).
example(e185,f29,negative).
example(e185,f30,negative).
example(e185,f31,negative).
example(e185,f32,negative).
example(e185,f33,positive).
example(e185,f34,negative).
example(e185,f35,negative).
example(e185,f36,negative).
example(e185,f37,negative).
example(e185,f38,negative).
example(e185,f39,negative).
example(e185,f40,negative).
example(e185,f41,negative).
example(e185,f42,negative).
example(e185,f43,negative).
example(e185,f44,negative).
example(e185,f45,negative).
example(e185,f46,negative).
example(e185,f47,negative).
example(e185,f48,negative).
example(e185,f49,negative).
example(e185,f50,negative).
example(e185,f51,negative).
example(e185,f52,negative).
example(e185,f53,negative).
example(e185,f54,negative).
example(e185,f55,negative).
example(e185,f56,negative).
example(e185,f57,negative).
example(e185,f58,negative).
example(e185,f59,negative).
example(e185,f60,negative).
example(e185,f61,negative).
example(e185,f62,negative).
example(e185,f63,negative).
example(e185,f64,negative).
example(e185,f65,negative).
example(e185,f66,negative).
example(e185,f67,positive).
example(e185,f68,negative).
example(e185,f69,positive).
example(e185,f70,negative).
example(e185,f71,negative).
example(e185,f72,negative).
example(e185,f73,negative).
example(e185,f74,negative).
example(e185,f75,negative).
example(e185,f76,negative).
example(e185,f77,positive).
example(e185,f78,positive).
example(e185,f79,negative).
example(e185,f80,negative).
example(e185,f81,negative).
example(e185,f82,negative).
example(e185,f83,negative).
example(e185,f84,negative).
example(e185,f85,negative).
example(e186,f1,positive).
example(e186,f2,negative).
example(e186,f3,negative).
example(e186,f4,negative).
example(e186,f5,negative).
example(e186,f6,negative).
example(e186,f7,negative).
example(e186,f8,positive).
example(e186,f9,negative).
example(e186,f10,positive).
example(e186,f11,negative).
example(e186,f12,negative).
example(e186,f13,negative).
example(e186,f14,negative).
example(e186,f15,negative).
example(e186,f16,negative).
example(e186,f17,negative).
example(e186,f18,negative).
example(e186,f19,negative).
example(e186,f20,negative).
example(e186,f21,negative).
example(e186,f22,positive).
example(e186,f23,negative).
example(e186,f24,negative).
example(e186,f25,negative).
example(e186,f26,negative).
example(e186,f27,negative).
example(e186,f28,negative).
example(e186,f29,negative).
example(e186,f30,negative).
example(e186,f31,negative).
example(e186,f32,negative).
example(e186,f33,negative).
example(e186,f34,negative).
example(e186,f35,negative).
example(e186,f36,negative).
example(e186,f37,negative).
example(e186,f38,positive).
example(e186,f39,negative).
example(e186,f40,negative).
example(e186,f41,negative).
example(e186,f42,negative).
example(e186,f43,negative).
example(e186,f44,negative).
example(e186,f45,negative).
example(e186,f46,negative).
example(e186,f47,negative).
example(e186,f48,negative).
example(e186,f49,negative).
example(e186,f50,negative).
example(e186,f51,negative).
example(e186,f52,negative).
example(e186,f53,negative).
example(e186,f54,negative).
example(e186,f55,negative).
example(e186,f56,negative).
example(e186,f57,negative).
example(e186,f58,negative).
example(e186,f59,negative).
example(e186,f60,negative).
example(e186,f61,negative).
example(e186,f62,negative).
example(e186,f63,negative).
example(e186,f64,positive).
example(e186,f65,negative).
example(e186,f66,negative).
example(e186,f67,positive).
example(e186,f68,negative).
example(e186,f69,positive).
example(e186,f70,negative).
example(e186,f71,negative).
example(e186,f72,negative).
example(e186,f73,negative).
example(e186,f74,negative).
example(e186,f75,negative).
example(e186,f76,negative).
example(e186,f77,negative).
example(e186,f78,positive).
example(e186,f79,negative).
example(e186,f80,negative).
example(e186,f81,negative).
example(e186,f82,negative).
example(e186,f83,negative).
example(e186,f84,negative).
example(e186,f85,negative).
example(e187,f1,positive).
example(e187,f2,negative).
example(e187,f3,negative).
example(e187,f4,negative).
example(e187,f5,negative).
example(e187,f6,negative).
example(e187,f7,negative).
example(e187,f8,positive).
example(e187,f9,negative).
example(e187,f10,positive).
example(e187,f11,negative).
example(e187,f12,negative).
example(e187,f13,negative).
example(e187,f14,negative).
example(e187,f15,negative).
example(e187,f16,negative).
example(e187,f17,negative).
example(e187,f18,negative).
example(e187,f19,negative).
example(e187,f20,negative).
example(e187,f21,negative).
example(e187,f22,positive).
example(e187,f23,negative).
example(e187,f24,negative).
example(e187,f25,negative).
example(e187,f26,negative).
example(e187,f27,negative).
example(e187,f28,negative).
example(e187,f29,negative).
example(e187,f30,negative).
example(e187,f31,negative).
example(e187,f32,positive).
example(e187,f33,negative).
example(e187,f34,negative).
example(e187,f35,negative).
example(e187,f36,negative).
example(e187,f37,negative).
example(e187,f38,negative).
example(e187,f39,negative).
example(e187,f40,negative).
example(e187,f41,negative).
example(e187,f42,negative).
example(e187,f43,negative).
example(e187,f44,negative).
example(e187,f45,negative).
example(e187,f46,negative).
example(e187,f47,negative).
example(e187,f48,negative).
example(e187,f49,negative).
example(e187,f50,negative).
example(e187,f51,negative).
example(e187,f52,negative).
example(e187,f53,negative).
example(e187,f54,negative).
example(e187,f55,negative).
example(e187,f56,negative).
example(e187,f57,negative).
example(e187,f58,negative).
example(e187,f59,negative).
example(e187,f60,negative).
example(e187,f61,negative).
example(e187,f62,negative).
example(e187,f63,negative).
example(e187,f64,positive).
example(e187,f65,negative).
example(e187,f66,negative).
example(e187,f67,positive).
example(e187,f68,negative).
example(e187,f69,positive).
example(e187,f70,negative).
example(e187,f71,negative).
example(e187,f72,negative).
example(e187,f73,negative).
example(e187,f74,negative).
example(e187,f75,negative).
example(e187,f76,negative).
example(e187,f77,negative).
example(e187,f78,positive).
example(e187,f79,negative).
example(e187,f80,negative).
example(e187,f81,negative).
example(e187,f82,negative).
example(e187,f83,negative).
example(e187,f84,negative).
example(e187,f85,negative).
example(e188,f1,positive).
example(e188,f2,negative).
example(e188,f3,negative).
example(e188,f4,negative).
example(e188,f5,negative).
example(e188,f6,negative).
example(e188,f7,negative).
example(e188,f8,negative).
example(e188,f9,negative).
example(e188,f10,positive).
example(e188,f11,negative).
example(e188,f12,negative).
example(e188,f13,negative).
example(e188,f14,negative).
example(e188,f15,negative).
example(e188,f16,negative).
example(e188,f17,negative).
example(e188,f18,negative).
example(e188,f19,negative).
example(e188,f20,negative).
example(e188,f21,negative).
example(e188,f22,negative).
example(e188,f23,negative).
example(e188,f24,negative).
example(e188,f25,negative).
example(e188,f26,negative).
example(e188,f27,negative).
example(e188,f28,negative).
example(e188,f29,negative).
example(e188,f30,negative).
example(e188,f31,positive).
example(e188,f32,negative).
example(e188,f33,negative).
example(e188,f34,negative).
example(e188,f35,negative).
example(e188,f36,negative).
example(e188,f37,negative).
example(e188,f38,negative).
example(e188,f39,negative).
example(e188,f40,negative).
example(e188,f41,negative).
example(e188,f42,negative).
example(e188,f43,negative).
example(e188,f44,negative).
example(e188,f45,negative).
example(e188,f46,negative).
example(e188,f47,negative).
example(e188,f48,negative).
example(e188,f49,negative).
example(e188,f50,negative).
example(e188,f51,negative).
example(e188,f52,negative).
example(e188,f53,negative).
example(e188,f54,negative).
example(e188,f55,negative).
example(e188,f56,negative).
example(e188,f57,negative).
example(e188,f58,negative).
example(e188,f59,negative).
example(e188,f60,negative).
example(e188,f61,negative).
example(e188,f62,negative).
example(e188,f63,negative).
example(e188,f64,negative).
example(e188,f65,negative).
example(e188,f66,negative).
example(e188,f67,positive).
example(e188,f68,negative).
example(e188,f69,negative).
example(e188,f70,negative).
example(e188,f71,negative).
example(e188,f72,negative).
example(e188,f73,negative).
example(e188,f74,negative).
example(e188,f75,negative).
example(e188,f76,negative).
example(e188,f77,negative).
example(e188,f78,positive).
example(e188,f79,negative).
example(e188,f80,negative).
example(e188,f81,negative).
example(e188,f82,negative).
example(e188,f83,negative).
example(e188,f84,negative).
example(e188,f85,negative).
example(e189,f1,positive).
example(e189,f2,negative).
example(e189,f3,negative).
example(e189,f4,negative).
example(e189,f5,negative).
example(e189,f6,negative).
example(e189,f7,negative).
example(e189,f8,positive).
example(e189,f9,negative).
example(e189,f10,negative).
example(e189,f11,negative).
example(e189,f12,negative).
example(e189,f13,negative).
example(e189,f14,negative).
example(e189,f15,negative).
example(e189,f16,negative).
example(e189,f17,negative).
example(e189,f18,negative).
example(e189,f19,negative).
example(e189,f20,negative).
example(e189,f21,negative).
example(e189,f22,negative).
example(e189,f23,negative).
example(e189,f24,negative).
example(e189,f25,negative).
example(e189,f26,negative).
example(e189,f27,negative).
example(e189,f28,negative).
example(e189,f29,negative).
example(e189,f30,negative).
example(e189,f31,negative).
example(e189,f32,negative).
example(e189,f33,negative).
example(e189,f34,negative).
example(e189,f35,negative).
example(e189,f36,negative).
example(e189,f37,negative).
example(e189,f38,negative).
example(e189,f39,negative).
example(e189,f40,negative).
example(e189,f41,negative).
example(e189,f42,negative).
example(e189,f43,negative).
example(e189,f44,positive).
example(e189,f45,negative).
example(e189,f46,negative).
example(e189,f47,negative).
example(e189,f48,negative).
example(e189,f49,negative).
example(e189,f50,negative).
example(e189,f51,negative).
example(e189,f52,negative).
example(e189,f53,negative).
example(e189,f54,negative).
example(e189,f55,negative).
example(e189,f56,negative).
example(e189,f57,negative).
example(e189,f58,negative).
example(e189,f59,negative).
example(e189,f60,negative).
example(e189,f61,negative).
example(e189,f62,negative).
example(e189,f63,negative).
example(e189,f64,negative).
example(e189,f65,negative).
example(e189,f66,negative).
example(e189,f67,negative).
example(e189,f68,negative).
example(e189,f69,positive).
example(e189,f70,negative).
example(e189,f71,negative).
example(e189,f72,negative).
example(e189,f73,negative).
example(e189,f74,negative).
example(e189,f75,negative).
example(e189,f76,positive).
example(e189,f77,negative).
example(e189,f78,positive).
example(e189,f79,negative).
example(e189,f80,negative).
example(e189,f81,negative).
example(e189,f82,negative).
example(e189,f83,negative).
example(e189,f84,negative).
example(e189,f85,negative).
example(e190,f1,positive).
example(e190,f2,negative).
example(e190,f3,negative).
example(e190,f4,negative).
example(e190,f5,negative).
example(e190,f6,negative).
example(e190,f7,negative).
example(e190,f8,positive).
example(e190,f9,positive).
example(e190,f10,negative).
example(e190,f11,negative).
example(e190,f12,negative).
example(e190,f13,positive).
example(e190,f14,positive).
example(e190,f15,negative).
example(e190,f16,negative).
example(e190,f17,negative).
example(e190,f18,negative).
example(e190,f19,negative).
example(e190,f20,negative).
example(e190,f21,negative).
example(e190,f22,negative).
example(e190,f23,negative).
example(e190,f24,negative).
example(e190,f25,negative).
example(e190,f26,negative).
example(e190,f27,negative).
example(e190,f28,negative).
example(e190,f29,negative).
example(e190,f30,negative).
example(e190,f31,negative).
example(e190,f32,positive).
example(e190,f33,negative).
example(e190,f34,negative).
example(e190,f35,negative).
example(e190,f36,negative).
example(e190,f37,negative).
example(e190,f38,negative).
example(e190,f39,negative).
example(e190,f40,negative).
example(e190,f41,negative).
example(e190,f42,negative).
example(e190,f43,negative).
example(e190,f44,negative).
example(e190,f45,negative).
example(e190,f46,negative).
example(e190,f47,negative).
example(e190,f48,negative).
example(e190,f49,negative).
example(e190,f50,negative).
example(e190,f51,negative).
example(e190,f52,negative).
example(e190,f53,negative).
example(e190,f54,negative).
example(e190,f55,negative).
example(e190,f56,negative).
example(e190,f57,negative).
example(e190,f58,negative).
example(e190,f59,negative).
example(e190,f60,negative).
example(e190,f61,negative).
example(e190,f62,negative).
example(e190,f63,negative).
example(e190,f64,negative).
example(e190,f65,negative).
example(e190,f66,negative).
example(e190,f67,positive).
example(e190,f68,negative).
example(e190,f69,positive).
example(e190,f70,negative).
example(e190,f71,negative).
example(e190,f72,negative).
example(e190,f73,negative).
example(e190,f74,negative).
example(e190,f75,positive).
example(e190,f76,negative).
example(e190,f77,negative).
example(e190,f78,positive).
example(e190,f79,negative).
example(e190,f80,negative).
example(e190,f81,negative).
example(e190,f82,negative).
example(e190,f83,negative).
example(e190,f84,negative).
example(e190,f85,negative).
example(e191,f1,positive).
example(e191,f2,negative).
example(e191,f3,negative).
example(e191,f4,negative).
example(e191,f5,negative).
example(e191,f6,negative).
example(e191,f7,negative).
example(e191,f8,positive).
example(e191,f9,negative).
example(e191,f10,positive).
example(e191,f11,negative).
example(e191,f12,negative).
example(e191,f13,positive).
example(e191,f14,negative).
example(e191,f15,negative).
example(e191,f16,negative).
example(e191,f17,negative).
example(e191,f18,negative).
example(e191,f19,negative).
example(e191,f20,negative).
example(e191,f21,negative).
example(e191,f22,negative).
example(e191,f23,negative).
example(e191,f24,negative).
example(e191,f25,negative).
example(e191,f26,negative).
example(e191,f27,negative).
example(e191,f28,negative).
example(e191,f29,negative).
example(e191,f30,negative).
example(e191,f31,negative).
example(e191,f32,negative).
example(e191,f33,negative).
example(e191,f34,negative).
example(e191,f35,negative).
example(e191,f36,negative).
example(e191,f37,negative).
example(e191,f38,negative).
example(e191,f39,negative).
example(e191,f40,negative).
example(e191,f41,negative).
example(e191,f42,negative).
example(e191,f43,negative).
example(e191,f44,negative).
example(e191,f45,negative).
example(e191,f46,negative).
example(e191,f47,negative).
example(e191,f48,negative).
example(e191,f49,negative).
example(e191,f50,negative).
example(e191,f51,negative).
example(e191,f52,negative).
example(e191,f53,negative).
example(e191,f54,negative).
example(e191,f55,negative).
example(e191,f56,negative).
example(e191,f57,negative).
example(e191,f58,negative).
example(e191,f59,negative).
example(e191,f60,negative).
example(e191,f61,negative).
example(e191,f62,negative).
example(e191,f63,negative).
example(e191,f64,negative).
example(e191,f65,negative).
example(e191,f66,negative).
example(e191,f67,positive).
example(e191,f68,positive).
example(e191,f69,negative).
example(e191,f70,negative).
example(e191,f71,negative).
example(e191,f72,negative).
example(e191,f73,negative).
example(e191,f74,negative).
example(e191,f75,positive).
example(e191,f76,negative).
example(e191,f77,negative).
example(e191,f78,positive).
example(e191,f79,negative).
example(e191,f80,negative).
example(e191,f81,negative).
example(e191,f82,negative).
example(e191,f83,negative).
example(e191,f84,negative).
example(e191,f85,negative).
example(e192,f1,negative).
example(e192,f2,negative).
example(e192,f3,negative).
example(e192,f4,negative).
example(e192,f5,negative).
example(e192,f6,positive).
example(e192,f7,negative).
example(e192,f8,negative).
example(e192,f9,negative).
example(e192,f10,negative).
example(e192,f11,negative).
example(e192,f12,negative).
example(e192,f13,negative).
example(e192,f14,negative).
example(e192,f15,negative).
example(e192,f16,negative).
example(e192,f17,negative).
example(e192,f18,negative).
example(e192,f19,negative).
example(e192,f20,negative).
example(e192,f21,negative).
example(e192,f22,negative).
example(e192,f23,negative).
example(e192,f24,negative).
example(e192,f25,negative).
example(e192,f26,negative).
example(e192,f27,negative).
example(e192,f28,negative).
example(e192,f29,negative).
example(e192,f30,negative).
example(e192,f31,negative).
example(e192,f32,negative).
example(e192,f33,negative).
example(e192,f34,negative).
example(e192,f35,negative).
example(e192,f36,negative).
example(e192,f37,negative).
example(e192,f38,negative).
example(e192,f39,negative).
example(e192,f40,negative).
example(e192,f41,negative).
example(e192,f42,negative).
example(e192,f43,negative).
example(e192,f44,negative).
example(e192,f45,negative).
example(e192,f46,negative).
example(e192,f47,negative).
example(e192,f48,negative).
example(e192,f49,negative).
example(e192,f50,negative).
example(e192,f51,negative).
example(e192,f52,negative).
example(e192,f53,negative).
example(e192,f54,negative).
example(e192,f55,negative).
example(e192,f56,negative).
example(e192,f57,negative).
example(e192,f58,negative).
example(e192,f59,negative).
example(e192,f60,negative).
example(e192,f61,negative).
example(e192,f62,negative).
example(e192,f63,negative).
example(e192,f64,negative).
example(e192,f65,negative).
example(e192,f66,negative).
example(e192,f67,negative).
example(e192,f68,negative).
example(e192,f69,negative).
example(e192,f70,negative).
example(e192,f71,negative).
example(e192,f72,negative).
example(e192,f73,positive).
example(e192,f74,negative).
example(e192,f75,negative).
example(e192,f76,negative).
example(e192,f77,negative).
example(e192,f78,positive).
example(e192,f79,negative).
example(e192,f80,positive).
example(e192,f81,negative).
example(e192,f82,negative).
example(e192,f83,negative).
example(e192,f84,negative).
example(e192,f85,negative).
example(e193,f1,negative).
example(e193,f2,positive).
example(e193,f3,negative).
example(e193,f4,negative).
example(e193,f5,negative).
example(e193,f6,positive).
example(e193,f7,negative).
example(e193,f8,negative).
example(e193,f9,negative).
example(e193,f10,negative).
example(e193,f11,negative).
example(e193,f12,negative).
example(e193,f13,negative).
example(e193,f14,negative).
example(e193,f15,negative).
example(e193,f16,negative).
example(e193,f17,negative).
example(e193,f18,negative).
example(e193,f19,negative).
example(e193,f20,negative).
example(e193,f21,negative).
example(e193,f22,negative).
example(e193,f23,negative).
example(e193,f24,negative).
example(e193,f25,negative).
example(e193,f26,negative).
example(e193,f27,negative).
example(e193,f28,positive).
example(e193,f29,negative).
example(e193,f30,negative).
example(e193,f31,negative).
example(e193,f32,negative).
example(e193,f33,negative).
example(e193,f34,negative).
example(e193,f35,negative).
example(e193,f36,negative).
example(e193,f37,negative).
example(e193,f38,negative).
example(e193,f39,negative).
example(e193,f40,negative).
example(e193,f41,negative).
example(e193,f42,negative).
example(e193,f43,negative).
example(e193,f44,negative).
example(e193,f45,negative).
example(e193,f46,negative).
example(e193,f47,negative).
example(e193,f48,negative).
example(e193,f49,negative).
example(e193,f50,negative).
example(e193,f51,negative).
example(e193,f52,negative).
example(e193,f53,negative).
example(e193,f54,negative).
example(e193,f55,negative).
example(e193,f56,negative).
example(e193,f57,negative).
example(e193,f58,negative).
example(e193,f59,negative).
example(e193,f60,negative).
example(e193,f61,negative).
example(e193,f62,negative).
example(e193,f63,negative).
example(e193,f64,negative).
example(e193,f65,negative).
example(e193,f66,negative).
example(e193,f67,negative).
example(e193,f68,negative).
example(e193,f69,negative).
example(e193,f70,negative).
example(e193,f71,negative).
example(e193,f72,negative).
example(e193,f73,positive).
example(e193,f74,negative).
example(e193,f75,negative).
example(e193,f76,negative).
example(e193,f77,negative).
example(e193,f78,positive).
example(e193,f79,negative).
example(e193,f80,positive).
example(e193,f81,negative).
example(e193,f82,negative).
example(e193,f83,negative).
example(e193,f84,negative).
example(e193,f85,negative).
example(e194,f1,negative).
example(e194,f2,negative).
example(e194,f3,positive).
example(e194,f4,negative).
example(e194,f5,negative).
example(e194,f6,negative).
example(e194,f7,negative).
example(e194,f8,positive).
example(e194,f9,negative).
example(e194,f10,positive).
example(e194,f11,negative).
example(e194,f12,negative).
example(e194,f13,positive).
example(e194,f14,negative).
example(e194,f15,negative).
example(e194,f16,negative).
example(e194,f17,positive).
example(e194,f18,negative).
example(e194,f19,negative).
example(e194,f20,negative).
example(e194,f21,positive).
example(e194,f22,negative).
example(e194,f23,negative).
example(e194,f24,negative).
example(e194,f25,positive).
example(e194,f26,negative).
example(e194,f27,negative).
example(e194,f28,negative).
example(e194,f29,negative).
example(e194,f30,negative).
example(e194,f31,negative).
example(e194,f32,negative).
example(e194,f33,negative).
example(e194,f34,negative).
example(e194,f35,negative).
example(e194,f36,negative).
example(e194,f37,negative).
example(e194,f38,negative).
example(e194,f39,negative).
example(e194,f40,negative).
example(e194,f41,negative).
example(e194,f42,negative).
example(e194,f43,negative).
example(e194,f44,negative).
example(e194,f45,negative).
example(e194,f46,positive).
example(e194,f47,negative).
example(e194,f48,negative).
example(e194,f49,negative).
example(e194,f50,negative).
example(e194,f51,negative).
example(e194,f52,negative).
example(e194,f53,negative).
example(e194,f54,negative).
example(e194,f55,negative).
example(e194,f56,negative).
example(e194,f57,negative).
example(e194,f58,negative).
example(e194,f59,negative).
example(e194,f60,negative).
example(e194,f61,negative).
example(e194,f62,negative).
example(e194,f63,negative).
example(e194,f64,negative).
example(e194,f65,negative).
example(e194,f66,negative).
example(e194,f67,positive).
example(e194,f68,negative).
example(e194,f69,positive).
example(e194,f70,negative).
example(e194,f71,negative).
example(e194,f72,negative).
example(e194,f73,positive).
example(e194,f74,negative).
example(e194,f75,negative).
example(e194,f76,negative).
example(e194,f77,negative).
example(e194,f78,positive).
example(e194,f79,negative).
example(e194,f80,negative).
example(e194,f81,negative).
example(e194,f82,negative).
example(e194,f83,negative).
example(e194,f84,negative).
example(e194,f85,negative).
example(e195,f1,negative).
example(e195,f2,negative).
example(e195,f3,positive).
example(e195,f4,negative).
example(e195,f5,negative).
example(e195,f6,negative).
example(e195,f7,negative).
example(e195,f8,positive).
example(e195,f9,negative).
example(e195,f10,positive).
example(e195,f11,negative).
example(e195,f12,negative).
example(e195,f13,positive).
example(e195,f14,negative).
example(e195,f15,negative).
example(e195,f16,negative).
example(e195,f17,positive).
example(e195,f18,negative).
example(e195,f19,negative).
example(e195,f20,negative).
example(e195,f21,positive).
example(e195,f22,negative).
example(e195,f23,negative).
example(e195,f24,negative).
example(e195,f25,positive).
example(e195,f26,negative).
example(e195,f27,negative).
example(e195,f28,negative).
example(e195,f29,negative).
example(e195,f30,negative).
example(e195,f31,negative).
example(e195,f32,negative).
example(e195,f33,negative).
example(e195,f34,negative).
example(e195,f35,negative).
example(e195,f36,negative).
example(e195,f37,negative).
example(e195,f38,negative).
example(e195,f39,negative).
example(e195,f40,negative).
example(e195,f41,negative).
example(e195,f42,negative).
example(e195,f43,negative).
example(e195,f44,negative).
example(e195,f45,negative).
example(e195,f46,negative).
example(e195,f47,positive).
example(e195,f48,negative).
example(e195,f49,negative).
example(e195,f50,negative).
example(e195,f51,negative).
example(e195,f52,negative).
example(e195,f53,negative).
example(e195,f54,negative).
example(e195,f55,negative).
example(e195,f56,negative).
example(e195,f57,negative).
example(e195,f58,negative).
example(e195,f59,negative).
example(e195,f60,negative).
example(e195,f61,negative).
example(e195,f62,negative).
example(e195,f63,negative).
example(e195,f64,negative).
example(e195,f65,negative).
example(e195,f66,negative).
example(e195,f67,positive).
example(e195,f68,negative).
example(e195,f69,positive).
example(e195,f70,negative).
example(e195,f71,negative).
example(e195,f72,negative).
example(e195,f73,positive).
example(e195,f74,negative).
example(e195,f75,negative).
example(e195,f76,negative).
example(e195,f77,negative).
example(e195,f78,positive).
example(e195,f79,negative).
example(e195,f80,negative).
example(e195,f81,negative).
example(e195,f82,negative).
example(e195,f83,negative).
example(e195,f84,negative).
example(e195,f85,negative).
example(e196,f1,positive).
example(e196,f2,negative).
example(e196,f3,negative).
example(e196,f4,negative).
example(e196,f5,negative).
example(e196,f6,negative).
example(e196,f7,negative).
example(e196,f8,positive).
example(e196,f9,negative).
example(e196,f10,positive).
example(e196,f11,negative).
example(e196,f12,negative).
example(e196,f13,negative).
example(e196,f14,positive).
example(e196,f15,negative).
example(e196,f16,negative).
example(e196,f17,positive).
example(e196,f18,negative).
example(e196,f19,negative).
example(e196,f20,negative).
example(e196,f21,negative).
example(e196,f22,negative).
example(e196,f23,negative).
example(e196,f24,negative).
example(e196,f25,negative).
example(e196,f26,negative).
example(e196,f27,negative).
example(e196,f28,negative).
example(e196,f29,negative).
example(e196,f30,negative).
example(e196,f31,negative).
example(e196,f32,positive).
example(e196,f33,negative).
example(e196,f34,negative).
example(e196,f35,negative).
example(e196,f36,negative).
example(e196,f37,negative).
example(e196,f38,negative).
example(e196,f39,negative).
example(e196,f40,negative).
example(e196,f41,negative).
example(e196,f42,negative).
example(e196,f43,negative).
example(e196,f44,negative).
example(e196,f45,negative).
example(e196,f46,negative).
example(e196,f47,negative).
example(e196,f48,negative).
example(e196,f49,negative).
example(e196,f50,negative).
example(e196,f51,negative).
example(e196,f52,negative).
example(e196,f53,negative).
example(e196,f54,negative).
example(e196,f55,negative).
example(e196,f56,negative).
example(e196,f57,negative).
example(e196,f58,negative).
example(e196,f59,negative).
example(e196,f60,negative).
example(e196,f61,negative).
example(e196,f62,negative).
example(e196,f63,negative).
example(e196,f64,negative).
example(e196,f65,negative).
example(e196,f66,negative).
example(e196,f67,positive).
example(e196,f68,positive).
example(e196,f69,negative).
example(e196,f70,negative).
example(e196,f71,negative).
example(e196,f72,negative).
example(e196,f73,negative).
example(e196,f74,negative).
example(e196,f75,negative).
example(e196,f76,negative).
example(e196,f77,negative).
example(e196,f78,positive).
example(e196,f79,negative).
example(e196,f80,negative).
example(e196,f81,negative).
example(e196,f82,negative).
example(e196,f83,negative).
example(e196,f84,negative).
example(e196,f85,negative).
example(e197,f1,positive).
example(e197,f2,negative).
example(e197,f3,negative).
example(e197,f4,negative).
example(e197,f5,negative).
example(e197,f6,negative).
example(e197,f7,negative).
example(e197,f8,positive).
example(e197,f9,positive).
example(e197,f10,negative).
example(e197,f11,negative).
example(e197,f12,negative).
example(e197,f13,negative).
example(e197,f14,positive).
example(e197,f15,negative).
example(e197,f16,negative).
example(e197,f17,positive).
example(e197,f18,negative).
example(e197,f19,negative).
example(e197,f20,negative).
example(e197,f21,negative).
example(e197,f22,negative).
example(e197,f23,negative).
example(e197,f24,negative).
example(e197,f25,negative).
example(e197,f26,negative).
example(e197,f27,negative).
example(e197,f28,negative).
example(e197,f29,negative).
example(e197,f30,negative).
example(e197,f31,negative).
example(e197,f32,positive).
example(e197,f33,negative).
example(e197,f34,negative).
example(e197,f35,negative).
example(e197,f36,negative).
example(e197,f37,negative).
example(e197,f38,negative).
example(e197,f39,negative).
example(e197,f40,negative).
example(e197,f41,negative).
example(e197,f42,negative).
example(e197,f43,negative).
example(e197,f44,negative).
example(e197,f45,negative).
example(e197,f46,negative).
example(e197,f47,negative).
example(e197,f48,negative).
example(e197,f49,negative).
example(e197,f50,negative).
example(e197,f51,negative).
example(e197,f52,negative).
example(e197,f53,negative).
example(e197,f54,negative).
example(e197,f55,negative).
example(e197,f56,negative).
example(e197,f57,negative).
example(e197,f58,negative).
example(e197,f59,negative).
example(e197,f60,negative).
example(e197,f61,negative).
example(e197,f62,negative).
example(e197,f63,negative).
example(e197,f64,negative).
example(e197,f65,negative).
example(e197,f66,negative).
example(e197,f67,positive).
example(e197,f68,negative).
example(e197,f69,positive).
example(e197,f70,negative).
example(e197,f71,negative).
example(e197,f72,negative).
example(e197,f73,negative).
example(e197,f74,negative).
example(e197,f75,negative).
example(e197,f76,negative).
example(e197,f77,negative).
example(e197,f78,positive).
example(e197,f79,negative).
example(e197,f80,negative).
example(e197,f81,negative).
example(e197,f82,negative).
example(e197,f83,negative).
example(e197,f84,negative).
example(e197,f85,negative).
example(e198,f1,negative).
example(e198,f2,negative).
example(e198,f3,positive).
example(e198,f4,negative).
example(e198,f5,negative).
example(e198,f6,negative).
example(e198,f7,negative).
example(e198,f8,positive).
example(e198,f9,negative).
example(e198,f10,positive).
example(e198,f11,negative).
example(e198,f12,negative).
example(e198,f13,positive).
example(e198,f14,negative).
example(e198,f15,negative).
example(e198,f16,negative).
example(e198,f17,negative).
example(e198,f18,negative).
example(e198,f19,negative).
example(e198,f20,negative).
example(e198,f21,negative).
example(e198,f22,negative).
example(e198,f23,negative).
example(e198,f24,negative).
example(e198,f25,negative).
example(e198,f26,negative).
example(e198,f27,negative).
example(e198,f28,negative).
example(e198,f29,negative).
example(e198,f30,negative).
example(e198,f31,negative).
example(e198,f32,negative).
example(e198,f33,negative).
example(e198,f34,negative).
example(e198,f35,negative).
example(e198,f36,negative).
example(e198,f37,negative).
example(e198,f38,negative).
example(e198,f39,negative).
example(e198,f40,negative).
example(e198,f41,negative).
example(e198,f42,negative).
example(e198,f43,negative).
example(e198,f44,negative).
example(e198,f45,negative).
example(e198,f46,negative).
example(e198,f47,negative).
example(e198,f48,negative).
example(e198,f49,negative).
example(e198,f50,negative).
example(e198,f51,negative).
example(e198,f52,negative).
example(e198,f53,negative).
example(e198,f54,negative).
example(e198,f55,negative).
example(e198,f56,negative).
example(e198,f57,negative).
example(e198,f58,negative).
example(e198,f59,negative).
example(e198,f60,positive).
example(e198,f61,negative).
example(e198,f62,negative).
example(e198,f63,negative).
example(e198,f64,positive).
example(e198,f65,negative).
example(e198,f66,negative).
example(e198,f67,positive).
example(e198,f68,negative).
example(e198,f69,positive).
example(e198,f70,negative).
example(e198,f71,negative).
example(e198,f72,negative).
example(e198,f73,negative).
example(e198,f74,negative).
example(e198,f75,negative).
example(e198,f76,negative).
example(e198,f77,negative).
example(e198,f78,positive).
example(e198,f79,negative).
example(e198,f80,negative).
example(e198,f81,negative).
example(e198,f82,negative).
example(e198,f83,negative).
example(e198,f84,negative).
example(e198,f85,negative).
example(e199,f1,negative).
example(e199,f2,negative).
example(e199,f3,negative).
example(e199,f4,negative).
example(e199,f5,negative).
example(e199,f6,negative).
example(e199,f7,negative).
example(e199,f8,positive).
example(e199,f9,negative).
example(e199,f10,positive).
example(e199,f11,negative).
example(e199,f12,negative).
example(e199,f13,positive).
example(e199,f14,negative).
example(e199,f15,negative).
example(e199,f16,negative).
example(e199,f17,negative).
example(e199,f18,negative).
example(e199,f19,negative).
example(e199,f20,negative).
example(e199,f21,negative).
example(e199,f22,negative).
example(e199,f23,negative).
example(e199,f24,negative).
example(e199,f25,negative).
example(e199,f26,negative).
example(e199,f27,negative).
example(e199,f28,negative).
example(e199,f29,negative).
example(e199,f30,negative).
example(e199,f31,negative).
example(e199,f32,negative).
example(e199,f33,negative).
example(e199,f34,negative).
example(e199,f35,negative).
example(e199,f36,negative).
example(e199,f37,positive).
example(e199,f38,negative).
example(e199,f39,negative).
example(e199,f40,negative).
example(e199,f41,negative).
example(e199,f42,negative).
example(e199,f43,negative).
example(e199,f44,negative).
example(e199,f45,negative).
example(e199,f46,negative).
example(e199,f47,negative).
example(e199,f48,negative).
example(e199,f49,negative).
example(e199,f50,negative).
example(e199,f51,negative).
example(e199,f52,negative).
example(e199,f53,negative).
example(e199,f54,negative).
example(e199,f55,negative).
example(e199,f56,negative).
example(e199,f57,negative).
example(e199,f58,negative).
example(e199,f59,negative).
example(e199,f60,negative).
example(e199,f61,negative).
example(e199,f62,negative).
example(e199,f63,negative).
example(e199,f64,positive).
example(e199,f65,negative).
example(e199,f66,negative).
example(e199,f67,positive).
example(e199,f68,negative).
example(e199,f69,positive).
example(e199,f70,negative).
example(e199,f71,negative).
example(e199,f72,negative).
example(e199,f73,negative).
example(e199,f74,positive).
example(e199,f75,negative).
example(e199,f76,negative).
example(e199,f77,negative).
example(e199,f78,positive).
example(e199,f79,negative).
example(e199,f80,negative).
example(e199,f81,negative).
example(e199,f82,negative).
example(e199,f83,negative).
example(e199,f84,negative).
example(e199,f85,negative).
example(e200,f1,negative).
example(e200,f2,negative).
example(e200,f3,positive).
example(e200,f4,negative).
example(e200,f5,negative).
example(e200,f6,negative).
example(e200,f7,negative).
example(e200,f8,positive).
example(e200,f9,negative).
example(e200,f10,positive).
example(e200,f11,negative).
example(e200,f12,negative).
example(e200,f13,positive).
example(e200,f14,negative).
example(e200,f15,negative).
example(e200,f16,negative).
example(e200,f17,negative).
example(e200,f18,negative).
example(e200,f19,negative).
example(e200,f20,negative).
example(e200,f21,negative).
example(e200,f22,positive).
example(e200,f23,negative).
example(e200,f24,negative).
example(e200,f25,negative).
example(e200,f26,negative).
example(e200,f27,negative).
example(e200,f28,negative).
example(e200,f29,negative).
example(e200,f30,negative).
example(e200,f31,negative).
example(e200,f32,negative).
example(e200,f33,negative).
example(e200,f34,negative).
example(e200,f35,negative).
example(e200,f36,negative).
example(e200,f37,negative).
example(e200,f38,negative).
example(e200,f39,negative).
example(e200,f40,negative).
example(e200,f41,negative).
example(e200,f42,negative).
example(e200,f43,negative).
example(e200,f44,negative).
example(e200,f45,negative).
example(e200,f46,negative).
example(e200,f47,negative).
example(e200,f48,negative).
example(e200,f49,negative).
example(e200,f50,negative).
example(e200,f51,negative).
example(e200,f52,negative).
example(e200,f53,negative).
example(e200,f54,negative).
example(e200,f55,negative).
example(e200,f56,negative).
example(e200,f57,negative).
example(e200,f58,negative).
example(e200,f59,negative).
example(e200,f60,negative).
example(e200,f61,negative).
example(e200,f62,positive).
example(e200,f63,negative).
example(e200,f64,negative).
example(e200,f65,negative).
example(e200,f66,negative).
example(e200,f67,positive).
example(e200,f68,negative).
example(e200,f69,positive).
example(e200,f70,negative).
example(e200,f71,negative).
example(e200,f72,negative).
example(e200,f73,positive).
example(e200,f74,negative).
example(e200,f75,negative).
example(e200,f76,negative).
example(e200,f77,negative).
example(e200,f78,positive).
example(e200,f79,negative).
example(e200,f80,negative).
example(e200,f81,negative).
example(e200,f82,negative).
example(e200,f83,negative).
example(e200,f84,negative).
example(e200,f85,negative).
example(e201,f1,negative).
example(e201,f2,negative).
example(e201,f3,positive).
example(e201,f4,negative).
example(e201,f5,negative).
example(e201,f6,negative).
example(e201,f7,negative).
example(e201,f8,positive).
example(e201,f9,negative).
example(e201,f10,positive).
example(e201,f11,negative).
example(e201,f12,negative).
example(e201,f13,positive).
example(e201,f14,negative).
example(e201,f15,negative).
example(e201,f16,negative).
example(e201,f17,negative).
example(e201,f18,negative).
example(e201,f19,negative).
example(e201,f20,negative).
example(e201,f21,negative).
example(e201,f22,positive).
example(e201,f23,negative).
example(e201,f24,negative).
example(e201,f25,negative).
example(e201,f26,negative).
example(e201,f27,negative).
example(e201,f28,negative).
example(e201,f29,negative).
example(e201,f30,negative).
example(e201,f31,positive).
example(e201,f32,negative).
example(e201,f33,negative).
example(e201,f34,negative).
example(e201,f35,negative).
example(e201,f36,negative).
example(e201,f37,negative).
example(e201,f38,negative).
example(e201,f39,negative).
example(e201,f40,negative).
example(e201,f41,negative).
example(e201,f42,negative).
example(e201,f43,negative).
example(e201,f44,negative).
example(e201,f45,negative).
example(e201,f46,negative).
example(e201,f47,negative).
example(e201,f48,negative).
example(e201,f49,negative).
example(e201,f50,negative).
example(e201,f51,negative).
example(e201,f52,negative).
example(e201,f53,negative).
example(e201,f54,negative).
example(e201,f55,negative).
example(e201,f56,negative).
example(e201,f57,negative).
example(e201,f58,negative).
example(e201,f59,negative).
example(e201,f60,negative).
example(e201,f61,negative).
example(e201,f62,negative).
example(e201,f63,negative).
example(e201,f64,negative).
example(e201,f65,negative).
example(e201,f66,negative).
example(e201,f67,positive).
example(e201,f68,negative).
example(e201,f69,positive).
example(e201,f70,negative).
example(e201,f71,negative).
example(e201,f72,negative).
example(e201,f73,positive).
example(e201,f74,negative).
example(e201,f75,negative).
example(e201,f76,negative).
example(e201,f77,negative).
example(e201,f78,positive).
example(e201,f79,negative).
example(e201,f80,negative).
example(e201,f81,negative).
example(e201,f82,negative).
example(e201,f83,negative).
example(e201,f84,negative).
example(e201,f85,negative).
example(e202,f1,negative).
example(e202,f2,negative).
example(e202,f3,positive).
example(e202,f4,negative).
example(e202,f5,negative).
example(e202,f6,negative).
example(e202,f7,negative).
example(e202,f8,positive).
example(e202,f9,positive).
example(e202,f10,negative).
example(e202,f11,negative).
example(e202,f12,negative).
example(e202,f13,positive).
example(e202,f14,negative).
example(e202,f15,negative).
example(e202,f16,negative).
example(e202,f17,negative).
example(e202,f18,negative).
example(e202,f19,negative).
example(e202,f20,negative).
example(e202,f21,negative).
example(e202,f22,positive).
example(e202,f23,negative).
example(e202,f24,negative).
example(e202,f25,negative).
example(e202,f26,negative).
example(e202,f27,negative).
example(e202,f28,negative).
example(e202,f29,negative).
example(e202,f30,negative).
example(e202,f31,negative).
example(e202,f32,negative).
example(e202,f33,negative).
example(e202,f34,negative).
example(e202,f35,negative).
example(e202,f36,negative).
example(e202,f37,negative).
example(e202,f38,negative).
example(e202,f39,negative).
example(e202,f40,negative).
example(e202,f41,negative).
example(e202,f42,negative).
example(e202,f43,negative).
example(e202,f44,positive).
example(e202,f45,negative).
example(e202,f46,negative).
example(e202,f47,negative).
example(e202,f48,negative).
example(e202,f49,negative).
example(e202,f50,negative).
example(e202,f51,negative).
example(e202,f52,negative).
example(e202,f53,negative).
example(e202,f54,negative).
example(e202,f55,negative).
example(e202,f56,negative).
example(e202,f57,negative).
example(e202,f58,negative).
example(e202,f59,negative).
example(e202,f60,negative).
example(e202,f61,negative).
example(e202,f62,negative).
example(e202,f63,negative).
example(e202,f64,negative).
example(e202,f65,positive).
example(e202,f66,negative).
example(e202,f67,positive).
example(e202,f68,positive).
example(e202,f69,negative).
example(e202,f70,negative).
example(e202,f71,negative).
example(e202,f72,negative).
example(e202,f73,negative).
example(e202,f74,negative).
example(e202,f75,negative).
example(e202,f76,positive).
example(e202,f77,negative).
example(e202,f78,positive).
example(e202,f79,negative).
example(e202,f80,negative).
example(e202,f81,negative).
example(e202,f82,negative).
example(e202,f83,negative).
example(e202,f84,negative).
example(e202,f85,negative).
example(e203,f1,negative).
example(e203,f2,negative).
example(e203,f3,positive).
example(e203,f4,negative).
example(e203,f5,negative).
example(e203,f6,negative).
example(e203,f7,negative).
example(e203,f8,negative).
example(e203,f9,positive).
example(e203,f10,negative).
example(e203,f11,negative).
example(e203,f12,positive).
example(e203,f13,negative).
example(e203,f14,negative).
example(e203,f15,negative).
example(e203,f16,negative).
example(e203,f17,positive).
example(e203,f18,negative).
example(e203,f19,negative).
example(e203,f20,negative).
example(e203,f21,negative).
example(e203,f22,positive).
example(e203,f23,negative).
example(e203,f24,positive).
example(e203,f25,negative).
example(e203,f26,negative).
example(e203,f27,negative).
example(e203,f28,negative).
example(e203,f29,negative).
example(e203,f30,negative).
example(e203,f31,negative).
example(e203,f32,negative).
example(e203,f33,negative).
example(e203,f34,negative).
example(e203,f35,negative).
example(e203,f36,negative).
example(e203,f37,negative).
example(e203,f38,negative).
example(e203,f39,negative).
example(e203,f40,negative).
example(e203,f41,negative).
example(e203,f42,negative).
example(e203,f43,negative).
example(e203,f44,negative).
example(e203,f45,positive).
example(e203,f46,negative).
example(e203,f47,negative).
example(e203,f48,negative).
example(e203,f49,negative).
example(e203,f50,negative).
example(e203,f51,negative).
example(e203,f52,negative).
example(e203,f53,negative).
example(e203,f54,negative).
example(e203,f55,negative).
example(e203,f56,negative).
example(e203,f57,negative).
example(e203,f58,negative).
example(e203,f59,negative).
example(e203,f60,negative).
example(e203,f61,negative).
example(e203,f62,negative).
example(e203,f63,negative).
example(e203,f64,negative).
example(e203,f65,negative).
example(e203,f66,negative).
example(e203,f67,negative).
example(e203,f68,negative).
example(e203,f69,negative).
example(e203,f70,negative).
example(e203,f71,negative).
example(e203,f72,negative).
example(e203,f73,positive).
example(e203,f74,negative).
example(e203,f75,negative).
example(e203,f76,negative).
example(e203,f77,negative).
example(e203,f78,positive).
example(e203,f79,positive).
example(e203,f80,negative).
example(e203,f81,negative).
example(e203,f82,negative).
example(e203,f83,negative).
example(e203,f84,negative).
example(e203,f85,negative).
example(e204,f1,positive).
example(e204,f2,negative).
example(e204,f3,negative).
example(e204,f4,negative).
example(e204,f5,negative).
example(e204,f6,negative).
example(e204,f7,negative).
example(e204,f8,positive).
example(e204,f9,negative).
example(e204,f10,positive).
example(e204,f11,negative).
example(e204,f12,negative).
example(e204,f13,positive).
example(e204,f14,negative).
example(e204,f15,negative).
example(e204,f16,negative).
example(e204,f17,negative).
example(e204,f18,negative).
example(e204,f19,negative).
example(e204,f20,negative).
example(e204,f21,negative).
example(e204,f22,positive).
example(e204,f23,negative).
example(e204,f24,negative).
example(e204,f25,negative).
example(e204,f26,negative).
example(e204,f27,negative).
example(e204,f28,negative).
example(e204,f29,negative).
example(e204,f30,negative).
example(e204,f31,negative).
example(e204,f32,negative).
example(e204,f33,negative).
example(e204,f34,negative).
example(e204,f35,negative).
example(e204,f36,negative).
example(e204,f37,negative).
example(e204,f38,negative).
example(e204,f39,negative).
example(e204,f40,negative).
example(e204,f41,positive).
example(e204,f42,negative).
example(e204,f43,negative).
example(e204,f44,negative).
example(e204,f45,negative).
example(e204,f46,negative).
example(e204,f47,negative).
example(e204,f48,negative).
example(e204,f49,negative).
example(e204,f50,negative).
example(e204,f51,negative).
example(e204,f52,negative).
example(e204,f53,negative).
example(e204,f54,negative).
example(e204,f55,negative).
example(e204,f56,negative).
example(e204,f57,negative).
example(e204,f58,negative).
example(e204,f59,negative).
example(e204,f60,negative).
example(e204,f61,negative).
example(e204,f62,negative).
example(e204,f63,negative).
example(e204,f64,negative).
example(e204,f65,negative).
example(e204,f66,negative).
example(e204,f67,positive).
example(e204,f68,negative).
example(e204,f69,positive).
example(e204,f70,negative).
example(e204,f71,negative).
example(e204,f72,negative).
example(e204,f73,negative).
example(e204,f74,negative).
example(e204,f75,negative).
example(e204,f76,positive).
example(e204,f77,negative).
example(e204,f78,positive).
example(e204,f79,negative).
example(e204,f80,negative).
example(e204,f81,negative).
example(e204,f82,negative).
example(e204,f83,negative).
example(e204,f84,negative).
example(e204,f85,negative).
example(e205,f1,positive).
example(e205,f2,negative).
example(e205,f3,positive).
example(e205,f4,negative).
example(e205,f5,negative).
example(e205,f6,negative).
example(e205,f7,negative).
example(e205,f8,positive).
example(e205,f9,negative).
example(e205,f10,positive).
example(e205,f11,negative).
example(e205,f12,negative).
example(e205,f13,positive).
example(e205,f14,negative).
example(e205,f15,negative).
example(e205,f16,negative).
example(e205,f17,negative).
example(e205,f18,negative).
example(e205,f19,negative).
example(e205,f20,negative).
example(e205,f21,negative).
example(e205,f22,positive).
example(e205,f23,negative).
example(e205,f24,negative).
example(e205,f25,negative).
example(e205,f26,negative).
example(e205,f27,negative).
example(e205,f28,negative).
example(e205,f29,negative).
example(e205,f30,negative).
example(e205,f31,negative).
example(e205,f32,negative).
example(e205,f33,negative).
example(e205,f34,negative).
example(e205,f35,negative).
example(e205,f36,negative).
example(e205,f37,negative).
example(e205,f38,negative).
example(e205,f39,negative).
example(e205,f40,negative).
example(e205,f41,negative).
example(e205,f42,positive).
example(e205,f43,negative).
example(e205,f44,negative).
example(e205,f45,negative).
example(e205,f46,negative).
example(e205,f47,negative).
example(e205,f48,negative).
example(e205,f49,negative).
example(e205,f50,negative).
example(e205,f51,negative).
example(e205,f52,negative).
example(e205,f53,negative).
example(e205,f54,negative).
example(e205,f55,negative).
example(e205,f56,negative).
example(e205,f57,negative).
example(e205,f58,negative).
example(e205,f59,negative).
example(e205,f60,negative).
example(e205,f61,negative).
example(e205,f62,negative).
example(e205,f63,negative).
example(e205,f64,negative).
example(e205,f65,negative).
example(e205,f66,negative).
example(e205,f67,positive).
example(e205,f68,negative).
example(e205,f69,positive).
example(e205,f70,negative).
example(e205,f71,negative).
example(e205,f72,negative).
example(e205,f73,positive).
example(e205,f74,negative).
example(e205,f75,negative).
example(e205,f76,negative).
example(e205,f77,negative).
example(e205,f78,positive).
example(e205,f79,negative).
example(e205,f80,negative).
example(e205,f81,negative).
example(e205,f82,negative).
example(e205,f83,negative).
example(e205,f84,negative).
example(e205,f85,negative).
example(e206,f1,negative).
example(e206,f2,negative).
example(e206,f3,positive).
example(e206,f4,negative).
example(e206,f5,negative).
example(e206,f6,negative).
example(e206,f7,negative).
example(e206,f8,positive).
example(e206,f9,negative).
example(e206,f10,positive).
example(e206,f11,negative).
example(e206,f12,negative).
example(e206,f13,positive).
example(e206,f14,negative).
example(e206,f15,negative).
example(e206,f16,negative).
example(e206,f17,negative).
example(e206,f18,negative).
example(e206,f19,negative).
example(e206,f20,negative).
example(e206,f21,negative).
example(e206,f22,negative).
example(e206,f23,negative).
example(e206,f24,negative).
example(e206,f25,negative).
example(e206,f26,negative).
example(e206,f27,negative).
example(e206,f28,negative).
example(e206,f29,negative).
example(e206,f30,negative).
example(e206,f31,negative).
example(e206,f32,negative).
example(e206,f33,negative).
example(e206,f34,negative).
example(e206,f35,negative).
example(e206,f36,negative).
example(e206,f37,negative).
example(e206,f38,negative).
example(e206,f39,negative).
example(e206,f40,negative).
example(e206,f41,negative).
example(e206,f42,negative).
example(e206,f43,negative).
example(e206,f44,negative).
example(e206,f45,negative).
example(e206,f46,negative).
example(e206,f47,negative).
example(e206,f48,negative).
example(e206,f49,negative).
example(e206,f50,negative).
example(e206,f51,negative).
example(e206,f52,negative).
example(e206,f53,negative).
example(e206,f54,negative).
example(e206,f55,negative).
example(e206,f56,negative).
example(e206,f57,negative).
example(e206,f58,negative).
example(e206,f59,negative).
example(e206,f60,negative).
example(e206,f61,positive).
example(e206,f62,negative).
example(e206,f63,negative).
example(e206,f64,positive).
example(e206,f65,negative).
example(e206,f66,negative).
example(e206,f67,positive).
example(e206,f68,negative).
example(e206,f69,positive).
example(e206,f70,negative).
example(e206,f71,negative).
example(e206,f72,negative).
example(e206,f73,positive).
example(e206,f74,negative).
example(e206,f75,negative).
example(e206,f76,negative).
example(e206,f77,negative).
example(e206,f78,positive).
example(e206,f79,negative).
example(e206,f80,negative).
example(e206,f81,negative).
example(e206,f82,negative).
example(e206,f83,negative).
example(e206,f84,negative).
example(e206,f85,negative).
example(e207,f1,negative).
example(e207,f2,negative).
example(e207,f3,positive).
example(e207,f4,negative).
example(e207,f5,negative).
example(e207,f6,negative).
example(e207,f7,negative).
example(e207,f8,positive).
example(e207,f9,negative).
example(e207,f10,positive).
example(e207,f11,negative).
example(e207,f12,negative).
example(e207,f13,positive).
example(e207,f14,negative).
example(e207,f15,negative).
example(e207,f16,negative).
example(e207,f17,negative).
example(e207,f18,negative).
example(e207,f19,negative).
example(e207,f20,negative).
example(e207,f21,negative).
example(e207,f22,negative).
example(e207,f23,negative).
example(e207,f24,negative).
example(e207,f25,negative).
example(e207,f26,negative).
example(e207,f27,negative).
example(e207,f28,negative).
example(e207,f29,negative).
example(e207,f30,negative).
example(e207,f31,negative).
example(e207,f32,negative).
example(e207,f33,negative).
example(e207,f34,negative).
example(e207,f35,negative).
example(e207,f36,negative).
example(e207,f37,negative).
example(e207,f38,negative).
example(e207,f39,negative).
example(e207,f40,negative).
example(e207,f41,negative).
example(e207,f42,negative).
example(e207,f43,negative).
example(e207,f44,negative).
example(e207,f45,positive).
example(e207,f46,negative).
example(e207,f47,negative).
example(e207,f48,negative).
example(e207,f49,negative).
example(e207,f50,negative).
example(e207,f51,negative).
example(e207,f52,negative).
example(e207,f53,negative).
example(e207,f54,negative).
example(e207,f55,negative).
example(e207,f56,negative).
example(e207,f57,negative).
example(e207,f58,negative).
example(e207,f59,negative).
example(e207,f60,negative).
example(e207,f61,negative).
example(e207,f62,negative).
example(e207,f63,negative).
example(e207,f64,positive).
example(e207,f65,negative).
example(e207,f66,negative).
example(e207,f67,positive).
example(e207,f68,negative).
example(e207,f69,positive).
example(e207,f70,negative).
example(e207,f71,negative).
example(e207,f72,negative).
example(e207,f73,positive).
example(e207,f74,negative).
example(e207,f75,negative).
example(e207,f76,negative).
example(e207,f77,negative).
example(e207,f78,positive).
example(e207,f79,negative).
example(e207,f80,negative).
example(e207,f81,negative).
example(e207,f82,negative).
example(e207,f83,negative).
example(e207,f84,negative).
example(e207,f85,negative).
example(e208,f1,negative).
example(e208,f2,negative).
example(e208,f3,negative).
example(e208,f4,negative).
example(e208,f5,negative).
example(e208,f6,negative).
example(e208,f7,positive).
example(e208,f8,negative).
example(e208,f9,negative).
example(e208,f10,positive).
example(e208,f11,negative).
example(e208,f12,negative).
example(e208,f13,positive).
example(e208,f14,negative).
example(e208,f15,negative).
example(e208,f16,negative).
example(e208,f17,negative).
example(e208,f18,negative).
example(e208,f19,negative).
example(e208,f20,negative).
example(e208,f21,negative).
example(e208,f22,negative).
example(e208,f23,negative).
example(e208,f24,negative).
example(e208,f25,negative).
example(e208,f26,negative).
example(e208,f27,negative).
example(e208,f28,negative).
example(e208,f29,negative).
example(e208,f30,negative).
example(e208,f31,negative).
example(e208,f32,negative).
example(e208,f33,negative).
example(e208,f34,negative).
example(e208,f35,negative).
example(e208,f36,negative).
example(e208,f37,negative).
example(e208,f38,negative).
example(e208,f39,negative).
example(e208,f40,negative).
example(e208,f41,negative).
example(e208,f42,negative).
example(e208,f43,negative).
example(e208,f44,negative).
example(e208,f45,negative).
example(e208,f46,negative).
example(e208,f47,negative).
example(e208,f48,negative).
example(e208,f49,negative).
example(e208,f50,negative).
example(e208,f51,negative).
example(e208,f52,negative).
example(e208,f53,negative).
example(e208,f54,negative).
example(e208,f55,negative).
example(e208,f56,negative).
example(e208,f57,negative).
example(e208,f58,negative).
example(e208,f59,negative).
example(e208,f60,negative).
example(e208,f61,negative).
example(e208,f62,negative).
example(e208,f63,negative).
example(e208,f64,negative).
example(e208,f65,negative).
example(e208,f66,positive).
example(e208,f67,negative).
example(e208,f68,negative).
example(e208,f69,positive).
example(e208,f70,negative).
example(e208,f71,negative).
example(e208,f72,negative).
example(e208,f73,positive).
example(e208,f74,negative).
example(e208,f75,negative).
example(e208,f76,negative).
example(e208,f77,negative).
example(e208,f78,positive).
example(e208,f79,negative).
example(e208,f80,negative).
example(e208,f81,negative).
example(e208,f82,negative).
example(e208,f83,negative).
example(e208,f84,negative).
example(e208,f85,negative).
example(e209,f1,negative).
example(e209,f2,negative).
example(e209,f3,negative).
example(e209,f4,negative).
example(e209,f5,negative).
example(e209,f6,negative).
example(e209,f7,positive).
example(e209,f8,negative).
example(e209,f9,negative).
example(e209,f10,positive).
example(e209,f11,negative).
example(e209,f12,negative).
example(e209,f13,positive).
example(e209,f14,negative).
example(e209,f15,negative).
example(e209,f16,negative).
example(e209,f17,negative).
example(e209,f18,negative).
example(e209,f19,negative).
example(e209,f20,negative).
example(e209,f21,negative).
example(e209,f22,negative).
example(e209,f23,negative).
example(e209,f24,negative).
example(e209,f25,negative).
example(e209,f26,negative).
example(e209,f27,negative).
example(e209,f28,negative).
example(e209,f29,negative).
example(e209,f30,negative).
example(e209,f31,negative).
example(e209,f32,negative).
example(e209,f33,negative).
example(e209,f34,negative).
example(e209,f35,negative).
example(e209,f36,negative).
example(e209,f37,negative).
example(e209,f38,negative).
example(e209,f39,negative).
example(e209,f40,negative).
example(e209,f41,negative).
example(e209,f42,negative).
example(e209,f43,negative).
example(e209,f44,negative).
example(e209,f45,negative).
example(e209,f46,negative).
example(e209,f47,negative).
example(e209,f48,negative).
example(e209,f49,negative).
example(e209,f50,negative).
example(e209,f51,negative).
example(e209,f52,negative).
example(e209,f53,negative).
example(e209,f54,negative).
example(e209,f55,negative).
example(e209,f56,negative).
example(e209,f57,negative).
example(e209,f58,negative).
example(e209,f59,negative).
example(e209,f60,negative).
example(e209,f61,negative).
example(e209,f62,negative).
example(e209,f63,negative).
example(e209,f64,negative).
example(e209,f65,negative).
example(e209,f66,positive).
example(e209,f67,negative).
example(e209,f68,negative).
example(e209,f69,positive).
example(e209,f70,negative).
example(e209,f71,negative).
example(e209,f72,negative).
example(e209,f73,negative).
example(e209,f74,negative).
example(e209,f75,negative).
example(e209,f76,negative).
example(e209,f77,negative).
example(e209,f78,positive).
example(e209,f79,negative).
example(e209,f80,negative).
example(e209,f81,negative).
example(e209,f82,negative).
example(e209,f83,negative).
example(e209,f84,negative).
example(e209,f85,negative).
example(e210,f1,positive).
example(e210,f2,negative).
example(e210,f3,negative).
example(e210,f4,negative).
example(e210,f5,negative).
example(e210,f6,negative).
example(e210,f7,negative).
example(e210,f8,positive).
example(e210,f9,negative).
example(e210,f10,positive).
example(e210,f11,negative).
example(e210,f12,negative).
example(e210,f13,positive).
example(e210,f14,negative).
example(e210,f15,negative).
example(e210,f16,negative).
example(e210,f17,negative).
example(e210,f18,negative).
example(e210,f19,negative).
example(e210,f20,negative).
example(e210,f21,negative).
example(e210,f22,negative).
example(e210,f23,negative).
example(e210,f24,negative).
example(e210,f25,negative).
example(e210,f26,negative).
example(e210,f27,negative).
example(e210,f28,negative).
example(e210,f29,negative).
example(e210,f30,negative).
example(e210,f31,negative).
example(e210,f32,negative).
example(e210,f33,negative).
example(e210,f34,negative).
example(e210,f35,negative).
example(e210,f36,negative).
example(e210,f37,negative).
example(e210,f38,negative).
example(e210,f39,negative).
example(e210,f40,negative).
example(e210,f41,negative).
example(e210,f42,negative).
example(e210,f43,negative).
example(e210,f44,negative).
example(e210,f45,negative).
example(e210,f46,negative).
example(e210,f47,negative).
example(e210,f48,negative).
example(e210,f49,negative).
example(e210,f50,negative).
example(e210,f51,negative).
example(e210,f52,negative).
example(e210,f53,negative).
example(e210,f54,negative).
example(e210,f55,negative).
example(e210,f56,negative).
example(e210,f57,negative).
example(e210,f58,negative).
example(e210,f59,negative).
example(e210,f60,negative).
example(e210,f61,negative).
example(e210,f62,negative).
example(e210,f63,negative).
example(e210,f64,negative).
example(e210,f65,negative).
example(e210,f66,negative).
example(e210,f67,positive).
example(e210,f68,negative).
example(e210,f69,positive).
example(e210,f70,negative).
example(e210,f71,negative).
example(e210,f72,negative).
example(e210,f73,negative).
example(e210,f74,positive).
example(e210,f75,negative).
example(e210,f76,negative).
example(e210,f77,negative).
example(e210,f78,positive).
example(e210,f79,negative).
example(e210,f80,negative).
example(e210,f81,negative).
example(e210,f82,negative).
example(e210,f83,negative).
example(e210,f84,negative).
example(e210,f85,negative).
example(e211,f1,positive).
example(e211,f2,negative).
example(e211,f3,negative).
example(e211,f4,negative).
example(e211,f5,negative).
example(e211,f6,negative).
example(e211,f7,negative).
example(e211,f8,positive).
example(e211,f9,negative).
example(e211,f10,positive).
example(e211,f11,negative).
example(e211,f12,negative).
example(e211,f13,positive).
example(e211,f14,negative).
example(e211,f15,negative).
example(e211,f16,negative).
example(e211,f17,negative).
example(e211,f18,negative).
example(e211,f19,negative).
example(e211,f20,negative).
example(e211,f21,negative).
example(e211,f22,negative).
example(e211,f23,negative).
example(e211,f24,negative).
example(e211,f25,negative).
example(e211,f26,negative).
example(e211,f27,negative).
example(e211,f28,negative).
example(e211,f29,negative).
example(e211,f30,negative).
example(e211,f31,negative).
example(e211,f32,negative).
example(e211,f33,negative).
example(e211,f34,negative).
example(e211,f35,negative).
example(e211,f36,negative).
example(e211,f37,negative).
example(e211,f38,negative).
example(e211,f39,negative).
example(e211,f40,negative).
example(e211,f41,negative).
example(e211,f42,negative).
example(e211,f43,negative).
example(e211,f44,negative).
example(e211,f45,negative).
example(e211,f46,negative).
example(e211,f47,negative).
example(e211,f48,negative).
example(e211,f49,negative).
example(e211,f50,negative).
example(e211,f51,negative).
example(e211,f52,negative).
example(e211,f53,negative).
example(e211,f54,negative).
example(e211,f55,negative).
example(e211,f56,negative).
example(e211,f57,negative).
example(e211,f58,negative).
example(e211,f59,negative).
example(e211,f60,negative).
example(e211,f61,negative).
example(e211,f62,negative).
example(e211,f63,negative).
example(e211,f64,negative).
example(e211,f65,negative).
example(e211,f66,negative).
example(e211,f67,positive).
example(e211,f68,negative).
example(e211,f69,positive).
example(e211,f70,negative).
example(e211,f71,negative).
example(e211,f72,negative).
example(e211,f73,negative).
example(e211,f74,positive).
example(e211,f75,negative).
example(e211,f76,negative).
example(e211,f77,negative).
example(e211,f78,positive).
example(e211,f79,negative).
example(e211,f80,negative).
example(e211,f81,negative).
example(e211,f82,negative).
example(e211,f83,negative).
example(e211,f84,negative).
example(e211,f85,negative).
example(e212,f1,negative).
example(e212,f2,negative).
example(e212,f3,negative).
example(e212,f4,negative).
example(e212,f5,negative).
example(e212,f6,negative).
example(e212,f7,negative).
example(e212,f8,negative).
example(e212,f9,positive).
example(e212,f10,negative).
example(e212,f11,negative).
example(e212,f12,negative).
example(e212,f13,negative).
example(e212,f14,negative).
example(e212,f15,negative).
example(e212,f16,negative).
example(e212,f17,negative).
example(e212,f18,positive).
example(e212,f19,negative).
example(e212,f20,negative).
example(e212,f21,negative).
example(e212,f22,negative).
example(e212,f23,negative).
example(e212,f24,negative).
example(e212,f25,negative).
example(e212,f26,negative).
example(e212,f27,negative).
example(e212,f28,negative).
example(e212,f29,negative).
example(e212,f30,negative).
example(e212,f31,negative).
example(e212,f32,negative).
example(e212,f33,negative).
example(e212,f34,negative).
example(e212,f35,negative).
example(e212,f36,negative).
example(e212,f37,negative).
example(e212,f38,negative).
example(e212,f39,negative).
example(e212,f40,negative).
example(e212,f41,negative).
example(e212,f42,negative).
example(e212,f43,negative).
example(e212,f44,negative).
example(e212,f45,negative).
example(e212,f46,negative).
example(e212,f47,negative).
example(e212,f48,negative).
example(e212,f49,negative).
example(e212,f50,positive).
example(e212,f51,negative).
example(e212,f52,negative).
example(e212,f53,negative).
example(e212,f54,negative).
example(e212,f55,negative).
example(e212,f56,negative).
example(e212,f57,negative).
example(e212,f58,negative).
example(e212,f59,negative).
example(e212,f60,negative).
example(e212,f61,negative).
example(e212,f62,negative).
example(e212,f63,negative).
example(e212,f64,negative).
example(e212,f65,negative).
example(e212,f66,negative).
example(e212,f67,negative).
example(e212,f68,negative).
example(e212,f69,negative).
example(e212,f70,negative).
example(e212,f71,negative).
example(e212,f72,negative).
example(e212,f73,positive).
example(e212,f74,negative).
example(e212,f75,negative).
example(e212,f76,negative).
example(e212,f77,negative).
example(e212,f78,positive).
example(e212,f79,negative).
example(e212,f80,negative).
example(e212,f81,negative).
example(e212,f82,negative).
example(e212,f83,negative).
example(e212,f84,negative).
example(e212,f85,negative).
example(e213,f1,negative).
example(e213,f2,negative).
example(e213,f3,negative).
example(e213,f4,negative).
example(e213,f5,negative).
example(e213,f6,negative).
example(e213,f7,positive).
example(e213,f8,negative).
example(e213,f9,negative).
example(e213,f10,positive).
example(e213,f11,negative).
example(e213,f12,negative).
example(e213,f13,negative).
example(e213,f14,negative).
example(e213,f15,negative).
example(e213,f16,negative).
example(e213,f17,negative).
example(e213,f18,negative).
example(e213,f19,negative).
example(e213,f20,negative).
example(e213,f21,negative).
example(e213,f22,negative).
example(e213,f23,negative).
example(e213,f24,negative).
example(e213,f25,negative).
example(e213,f26,negative).
example(e213,f27,negative).
example(e213,f28,negative).
example(e213,f29,negative).
example(e213,f30,negative).
example(e213,f31,negative).
example(e213,f32,negative).
example(e213,f33,negative).
example(e213,f34,negative).
example(e213,f35,positive).
example(e213,f36,negative).
example(e213,f37,negative).
example(e213,f38,negative).
example(e213,f39,negative).
example(e213,f40,negative).
example(e213,f41,negative).
example(e213,f42,negative).
example(e213,f43,negative).
example(e213,f44,negative).
example(e213,f45,negative).
example(e213,f46,negative).
example(e213,f47,negative).
example(e213,f48,negative).
example(e213,f49,negative).
example(e213,f50,negative).
example(e213,f51,negative).
example(e213,f52,negative).
example(e213,f53,negative).
example(e213,f54,negative).
example(e213,f55,negative).
example(e213,f56,negative).
example(e213,f57,negative).
example(e213,f58,negative).
example(e213,f59,negative).
example(e213,f60,negative).
example(e213,f61,negative).
example(e213,f62,negative).
example(e213,f63,negative).
example(e213,f64,negative).
example(e213,f65,negative).
example(e213,f66,negative).
example(e213,f67,positive).
example(e213,f68,negative).
example(e213,f69,positive).
example(e213,f70,negative).
example(e213,f71,negative).
example(e213,f72,negative).
example(e213,f73,negative).
example(e213,f74,positive).
example(e213,f75,negative).
example(e213,f76,negative).
example(e213,f77,negative).
example(e213,f78,positive).
example(e213,f79,negative).
example(e213,f80,negative).
example(e213,f81,negative).
example(e213,f82,negative).
example(e213,f83,negative).
example(e213,f84,negative).
example(e213,f85,negative).
example(e214,f1,negative).
example(e214,f2,negative).
example(e214,f3,negative).
example(e214,f4,negative).
example(e214,f5,negative).
example(e214,f6,negative).
example(e214,f7,negative).
example(e214,f8,positive).
example(e214,f9,negative).
example(e214,f10,positive).
example(e214,f11,negative).
example(e214,f12,negative).
example(e214,f13,negative).
example(e214,f14,negative).
example(e214,f15,negative).
example(e214,f16,negative).
example(e214,f17,negative).
example(e214,f18,negative).
example(e214,f19,negative).
example(e214,f20,negative).
example(e214,f21,negative).
example(e214,f22,negative).
example(e214,f23,negative).
example(e214,f24,negative).
example(e214,f25,negative).
example(e214,f26,negative).
example(e214,f27,negative).
example(e214,f28,negative).
example(e214,f29,negative).
example(e214,f30,negative).
example(e214,f31,negative).
example(e214,f32,negative).
example(e214,f33,positive).
example(e214,f34,negative).
example(e214,f35,negative).
example(e214,f36,negative).
example(e214,f37,negative).
example(e214,f38,negative).
example(e214,f39,negative).
example(e214,f40,negative).
example(e214,f41,negative).
example(e214,f42,negative).
example(e214,f43,negative).
example(e214,f44,negative).
example(e214,f45,negative).
example(e214,f46,negative).
example(e214,f47,negative).
example(e214,f48,negative).
example(e214,f49,negative).
example(e214,f50,negative).
example(e214,f51,negative).
example(e214,f52,negative).
example(e214,f53,negative).
example(e214,f54,negative).
example(e214,f55,negative).
example(e214,f56,negative).
example(e214,f57,negative).
example(e214,f58,negative).
example(e214,f59,negative).
example(e214,f60,negative).
example(e214,f61,negative).
example(e214,f62,negative).
example(e214,f63,negative).
example(e214,f64,negative).
example(e214,f65,negative).
example(e214,f66,positive).
example(e214,f67,negative).
example(e214,f68,negative).
example(e214,f69,positive).
example(e214,f70,negative).
example(e214,f71,negative).
example(e214,f72,negative).
example(e214,f73,negative).
example(e214,f74,positive).
example(e214,f75,negative).
example(e214,f76,negative).
example(e214,f77,negative).
example(e214,f78,positive).
example(e214,f79,negative).
example(e214,f80,negative).
example(e214,f81,negative).
example(e214,f82,negative).
example(e214,f83,negative).
example(e214,f84,negative).
example(e214,f85,negative).
example(e215,f1,negative).
example(e215,f2,negative).
example(e215,f3,negative).
example(e215,f4,negative).
example(e215,f5,positive).
example(e215,f6,positive).
example(e215,f7,negative).
example(e215,f8,negative).
example(e215,f9,negative).
example(e215,f10,negative).
example(e215,f11,negative).
example(e215,f12,positive).
example(e215,f13,negative).
example(e215,f14,negative).
example(e215,f15,negative).
example(e215,f16,negative).
example(e215,f17,negative).
example(e215,f18,negative).
example(e215,f19,negative).
example(e215,f20,negative).
example(e215,f21,negative).
example(e215,f22,negative).
example(e215,f23,negative).
example(e215,f24,negative).
example(e215,f25,negative).
example(e215,f26,negative).
example(e215,f27,negative).
example(e215,f28,negative).
example(e215,f29,negative).
example(e215,f30,negative).
example(e215,f31,negative).
example(e215,f32,negative).
example(e215,f33,negative).
example(e215,f34,negative).
example(e215,f35,negative).
example(e215,f36,negative).
example(e215,f37,negative).
example(e215,f38,negative).
example(e215,f39,negative).
example(e215,f40,negative).
example(e215,f41,negative).
example(e215,f42,negative).
example(e215,f43,negative).
example(e215,f44,negative).
example(e215,f45,negative).
example(e215,f46,negative).
example(e215,f47,negative).
example(e215,f48,negative).
example(e215,f49,negative).
example(e215,f50,negative).
example(e215,f51,negative).
example(e215,f52,negative).
example(e215,f53,negative).
example(e215,f54,negative).
example(e215,f55,negative).
example(e215,f56,negative).
example(e215,f57,negative).
example(e215,f58,negative).
example(e215,f59,negative).
example(e215,f60,negative).
example(e215,f61,negative).
example(e215,f62,negative).
example(e215,f63,negative).
example(e215,f64,negative).
example(e215,f65,negative).
example(e215,f66,negative).
example(e215,f67,negative).
example(e215,f68,negative).
example(e215,f69,negative).
example(e215,f70,negative).
example(e215,f71,negative).
example(e215,f72,negative).
example(e215,f73,negative).
example(e215,f74,negative).
example(e215,f75,negative).
example(e215,f76,negative).
example(e215,f77,positive).
example(e215,f78,positive).
example(e215,f79,negative).
example(e215,f80,positive).
example(e215,f81,negative).
example(e215,f82,negative).
example(e215,f83,negative).
example(e215,f84,negative).
example(e215,f85,negative).
example(e216,f1,negative).
example(e216,f2,negative).
example(e216,f3,negative).
example(e216,f4,negative).
example(e216,f5,negative).
example(e216,f6,positive).
example(e216,f7,negative).
example(e216,f8,negative).
example(e216,f9,negative).
example(e216,f10,negative).
example(e216,f11,negative).
example(e216,f12,positive).
example(e216,f13,negative).
example(e216,f14,negative).
example(e216,f15,negative).
example(e216,f16,negative).
example(e216,f17,negative).
example(e216,f18,negative).
example(e216,f19,negative).
example(e216,f20,negative).
example(e216,f21,negative).
example(e216,f22,negative).
example(e216,f23,negative).
example(e216,f24,negative).
example(e216,f25,negative).
example(e216,f26,negative).
example(e216,f27,negative).
example(e216,f28,negative).
example(e216,f29,negative).
example(e216,f30,negative).
example(e216,f31,negative).
example(e216,f32,negative).
example(e216,f33,negative).
example(e216,f34,negative).
example(e216,f35,negative).
example(e216,f36,negative).
example(e216,f37,negative).
example(e216,f38,negative).
example(e216,f39,negative).
example(e216,f40,negative).
example(e216,f41,negative).
example(e216,f42,negative).
example(e216,f43,negative).
example(e216,f44,negative).
example(e216,f45,negative).
example(e216,f46,negative).
example(e216,f47,negative).
example(e216,f48,negative).
example(e216,f49,negative).
example(e216,f50,negative).
example(e216,f51,negative).
example(e216,f52,negative).
example(e216,f53,negative).
example(e216,f54,negative).
example(e216,f55,negative).
example(e216,f56,negative).
example(e216,f57,negative).
example(e216,f58,negative).
example(e216,f59,negative).
example(e216,f60,negative).
example(e216,f61,negative).
example(e216,f62,negative).
example(e216,f63,negative).
example(e216,f64,negative).
example(e216,f65,negative).
example(e216,f66,negative).
example(e216,f67,negative).
example(e216,f68,negative).
example(e216,f69,negative).
example(e216,f70,negative).
example(e216,f71,negative).
example(e216,f72,negative).
example(e216,f73,positive).
example(e216,f74,negative).
example(e216,f75,negative).
example(e216,f76,negative).
example(e216,f77,negative).
example(e216,f78,positive).
example(e216,f79,negative).
example(e216,f80,positive).
example(e216,f81,negative).
example(e216,f82,negative).
example(e216,f83,negative).
example(e216,f84,negative).
example(e216,f85,negative).
example(e217,f1,positive).
example(e217,f2,negative).
example(e217,f3,positive).
example(e217,f4,negative).
example(e217,f5,negative).
example(e217,f6,negative).
example(e217,f7,negative).
example(e217,f8,negative).
example(e217,f9,negative).
example(e217,f10,positive).
example(e217,f11,negative).
example(e217,f12,positive).
example(e217,f13,negative).
example(e217,f14,negative).
example(e217,f15,negative).
example(e217,f16,negative).
example(e217,f17,negative).
example(e217,f18,negative).
example(e217,f19,negative).
example(e217,f20,negative).
example(e217,f21,negative).
example(e217,f22,negative).
example(e217,f23,negative).
example(e217,f24,negative).
example(e217,f25,negative).
example(e217,f26,negative).
example(e217,f27,negative).
example(e217,f28,negative).
example(e217,f29,negative).
example(e217,f30,negative).
example(e217,f31,negative).
example(e217,f32,negative).
example(e217,f33,negative).
example(e217,f34,negative).
example(e217,f35,negative).
example(e217,f36,negative).
example(e217,f37,negative).
example(e217,f38,negative).
example(e217,f39,negative).
example(e217,f40,negative).
example(e217,f41,negative).
example(e217,f42,negative).
example(e217,f43,negative).
example(e217,f44,negative).
example(e217,f45,negative).
example(e217,f46,negative).
example(e217,f47,negative).
example(e217,f48,negative).
example(e217,f49,negative).
example(e217,f50,negative).
example(e217,f51,negative).
example(e217,f52,negative).
example(e217,f53,negative).
example(e217,f54,negative).
example(e217,f55,negative).
example(e217,f56,negative).
example(e217,f57,negative).
example(e217,f58,negative).
example(e217,f59,negative).
example(e217,f60,negative).
example(e217,f61,negative).
example(e217,f62,negative).
example(e217,f63,negative).
example(e217,f64,negative).
example(e217,f65,negative).
example(e217,f66,positive).
example(e217,f67,negative).
example(e217,f68,negative).
example(e217,f69,negative).
example(e217,f70,negative).
example(e217,f71,negative).
example(e217,f72,negative).
example(e217,f73,negative).
example(e217,f74,negative).
example(e217,f75,negative).
example(e217,f76,positive).
example(e217,f77,negative).
example(e217,f78,positive).
example(e217,f79,negative).
example(e217,f80,negative).
example(e217,f81,negative).
example(e217,f82,negative).
example(e217,f83,negative).
example(e217,f84,negative).
example(e217,f85,negative).
example(e218,f1,positive).
example(e218,f2,negative).
example(e218,f3,negative).
example(e218,f4,negative).
example(e218,f5,negative).
example(e218,f6,negative).
example(e218,f7,negative).
example(e218,f8,positive).
example(e218,f9,negative).
example(e218,f10,positive).
example(e218,f11,negative).
example(e218,f12,negative).
example(e218,f13,positive).
example(e218,f14,negative).
example(e218,f15,negative).
example(e218,f16,negative).
example(e218,f17,negative).
example(e218,f18,negative).
example(e218,f19,negative).
example(e218,f20,negative).
example(e218,f21,negative).
example(e218,f22,positive).
example(e218,f23,negative).
example(e218,f24,negative).
example(e218,f25,negative).
example(e218,f26,negative).
example(e218,f27,negative).
example(e218,f28,negative).
example(e218,f29,negative).
example(e218,f30,negative).
example(e218,f31,negative).
example(e218,f32,negative).
example(e218,f33,positive).
example(e218,f34,negative).
example(e218,f35,negative).
example(e218,f36,negative).
example(e218,f37,negative).
example(e218,f38,negative).
example(e218,f39,negative).
example(e218,f40,negative).
example(e218,f41,negative).
example(e218,f42,negative).
example(e218,f43,negative).
example(e218,f44,negative).
example(e218,f45,negative).
example(e218,f46,negative).
example(e218,f47,negative).
example(e218,f48,negative).
example(e218,f49,negative).
example(e218,f50,negative).
example(e218,f51,negative).
example(e218,f52,negative).
example(e218,f53,negative).
example(e218,f54,negative).
example(e218,f55,negative).
example(e218,f56,negative).
example(e218,f57,negative).
example(e218,f58,negative).
example(e218,f59,negative).
example(e218,f60,negative).
example(e218,f61,negative).
example(e218,f62,negative).
example(e218,f63,negative).
example(e218,f64,positive).
example(e218,f65,negative).
example(e218,f66,negative).
example(e218,f67,positive).
example(e218,f68,negative).
example(e218,f69,positive).
example(e218,f70,negative).
example(e218,f71,negative).
example(e218,f72,negative).
example(e218,f73,negative).
example(e218,f74,negative).
example(e218,f75,positive).
example(e218,f76,negative).
example(e218,f77,negative).
example(e218,f78,positive).
example(e218,f79,negative).
example(e218,f80,negative).
example(e218,f81,negative).
example(e218,f82,negative).
example(e218,f83,negative).
example(e218,f84,negative).
example(e218,f85,negative).
example(e219,f1,positive).
example(e219,f2,negative).
example(e219,f3,positive).
example(e219,f4,negative).
example(e219,f5,negative).
example(e219,f6,negative).
example(e219,f7,negative).
example(e219,f8,positive).
example(e219,f9,negative).
example(e219,f10,positive).
example(e219,f11,negative).
example(e219,f12,negative).
example(e219,f13,positive).
example(e219,f14,negative).
example(e219,f15,negative).
example(e219,f16,negative).
example(e219,f17,negative).
example(e219,f18,negative).
example(e219,f19,negative).
example(e219,f20,negative).
example(e219,f21,negative).
example(e219,f22,positive).
example(e219,f23,negative).
example(e219,f24,negative).
example(e219,f25,negative).
example(e219,f26,negative).
example(e219,f27,negative).
example(e219,f28,negative).
example(e219,f29,negative).
example(e219,f30,negative).
example(e219,f31,negative).
example(e219,f32,negative).
example(e219,f33,negative).
example(e219,f34,negative).
example(e219,f35,negative).
example(e219,f36,negative).
example(e219,f37,negative).
example(e219,f38,negative).
example(e219,f39,negative).
example(e219,f40,negative).
example(e219,f41,negative).
example(e219,f42,negative).
example(e219,f43,negative).
example(e219,f44,positive).
example(e219,f45,negative).
example(e219,f46,negative).
example(e219,f47,negative).
example(e219,f48,negative).
example(e219,f49,negative).
example(e219,f50,negative).
example(e219,f51,negative).
example(e219,f52,negative).
example(e219,f53,negative).
example(e219,f54,negative).
example(e219,f55,negative).
example(e219,f56,negative).
example(e219,f57,negative).
example(e219,f58,negative).
example(e219,f59,negative).
example(e219,f60,negative).
example(e219,f61,negative).
example(e219,f62,negative).
example(e219,f63,negative).
example(e219,f64,positive).
example(e219,f65,negative).
example(e219,f66,negative).
example(e219,f67,positive).
example(e219,f68,negative).
example(e219,f69,positive).
example(e219,f70,negative).
example(e219,f71,negative).
example(e219,f72,negative).
example(e219,f73,negative).
example(e219,f74,negative).
example(e219,f75,negative).
example(e219,f76,negative).
example(e219,f77,negative).
example(e219,f78,positive).
example(e219,f79,negative).
example(e219,f80,negative).
example(e219,f81,negative).
example(e219,f82,negative).
example(e219,f83,negative).
example(e219,f84,negative).
example(e219,f85,negative).
example(e220,f1,positive).
example(e220,f2,negative).
example(e220,f3,negative).
example(e220,f4,negative).
example(e220,f5,negative).
example(e220,f6,negative).
example(e220,f7,negative).
example(e220,f8,positive).
example(e220,f9,negative).
example(e220,f10,positive).
example(e220,f11,negative).
example(e220,f12,negative).
example(e220,f13,positive).
example(e220,f14,negative).
example(e220,f15,negative).
example(e220,f16,negative).
example(e220,f17,negative).
example(e220,f18,negative).
example(e220,f19,negative).
example(e220,f20,negative).
example(e220,f21,negative).
example(e220,f22,negative).
example(e220,f23,negative).
example(e220,f24,negative).
example(e220,f25,negative).
example(e220,f26,negative).
example(e220,f27,negative).
example(e220,f28,negative).
example(e220,f29,negative).
example(e220,f30,negative).
example(e220,f31,negative).
example(e220,f32,positive).
example(e220,f33,negative).
example(e220,f34,negative).
example(e220,f35,negative).
example(e220,f36,negative).
example(e220,f37,negative).
example(e220,f38,negative).
example(e220,f39,negative).
example(e220,f40,negative).
example(e220,f41,negative).
example(e220,f42,negative).
example(e220,f43,negative).
example(e220,f44,negative).
example(e220,f45,negative).
example(e220,f46,negative).
example(e220,f47,negative).
example(e220,f48,negative).
example(e220,f49,negative).
example(e220,f50,negative).
example(e220,f51,negative).
example(e220,f52,negative).
example(e220,f53,negative).
example(e220,f54,negative).
example(e220,f55,negative).
example(e220,f56,negative).
example(e220,f57,negative).
example(e220,f58,negative).
example(e220,f59,negative).
example(e220,f60,negative).
example(e220,f61,negative).
example(e220,f62,negative).
example(e220,f63,negative).
example(e220,f64,negative).
example(e220,f65,negative).
example(e220,f66,negative).
example(e220,f67,positive).
example(e220,f68,positive).
example(e220,f69,negative).
example(e220,f70,negative).
example(e220,f71,negative).
example(e220,f72,negative).
example(e220,f73,negative).
example(e220,f74,negative).
example(e220,f75,negative).
example(e220,f76,negative).
example(e220,f77,negative).
example(e220,f78,positive).
example(e220,f79,negative).
example(e220,f80,negative).
example(e220,f81,negative).
example(e220,f82,negative).
example(e220,f83,negative).
example(e220,f84,negative).
example(e220,f85,negative).
example(e221,f1,positive).
example(e221,f2,negative).
example(e221,f3,negative).
example(e221,f4,negative).
example(e221,f5,negative).
example(e221,f6,negative).
example(e221,f7,negative).
example(e221,f8,positive).
example(e221,f9,positive).
example(e221,f10,negative).
example(e221,f11,negative).
example(e221,f12,negative).
example(e221,f13,positive).
example(e221,f14,negative).
example(e221,f15,negative).
example(e221,f16,negative).
example(e221,f17,negative).
example(e221,f18,negative).
example(e221,f19,negative).
example(e221,f20,negative).
example(e221,f21,negative).
example(e221,f22,negative).
example(e221,f23,negative).
example(e221,f24,negative).
example(e221,f25,negative).
example(e221,f26,negative).
example(e221,f27,negative).
example(e221,f28,negative).
example(e221,f29,negative).
example(e221,f30,negative).
example(e221,f31,negative).
example(e221,f32,positive).
example(e221,f33,negative).
example(e221,f34,negative).
example(e221,f35,negative).
example(e221,f36,negative).
example(e221,f37,negative).
example(e221,f38,negative).
example(e221,f39,negative).
example(e221,f40,negative).
example(e221,f41,negative).
example(e221,f42,negative).
example(e221,f43,negative).
example(e221,f44,negative).
example(e221,f45,negative).
example(e221,f46,negative).
example(e221,f47,negative).
example(e221,f48,negative).
example(e221,f49,negative).
example(e221,f50,negative).
example(e221,f51,negative).
example(e221,f52,negative).
example(e221,f53,negative).
example(e221,f54,negative).
example(e221,f55,negative).
example(e221,f56,negative).
example(e221,f57,negative).
example(e221,f58,negative).
example(e221,f59,negative).
example(e221,f60,negative).
example(e221,f61,negative).
example(e221,f62,negative).
example(e221,f63,negative).
example(e221,f64,negative).
example(e221,f65,negative).
example(e221,f66,negative).
example(e221,f67,positive).
example(e221,f68,negative).
example(e221,f69,positive).
example(e221,f70,negative).
example(e221,f71,negative).
example(e221,f72,negative).
example(e221,f73,negative).
example(e221,f74,negative).
example(e221,f75,negative).
example(e221,f76,positive).
example(e221,f77,negative).
example(e221,f78,positive).
example(e221,f79,negative).
example(e221,f80,negative).
example(e221,f81,negative).
example(e221,f82,negative).
example(e221,f83,negative).
example(e221,f84,negative).
example(e221,f85,negative).
example(e222,f1,positive).
example(e222,f2,negative).
example(e222,f3,negative).
example(e222,f4,negative).
example(e222,f5,negative).
example(e222,f6,negative).
example(e222,f7,negative).
example(e222,f8,negative).
example(e222,f9,negative).
example(e222,f10,positive).
example(e222,f11,negative).
example(e222,f12,negative).
example(e222,f13,negative).
example(e222,f14,positive).
example(e222,f15,negative).
example(e222,f16,negative).
example(e222,f17,negative).
example(e222,f18,negative).
example(e222,f19,negative).
example(e222,f20,negative).
example(e222,f21,negative).
example(e222,f22,negative).
example(e222,f23,negative).
example(e222,f24,negative).
example(e222,f25,negative).
example(e222,f26,negative).
example(e222,f27,negative).
example(e222,f28,negative).
example(e222,f29,negative).
example(e222,f30,negative).
example(e222,f31,negative).
example(e222,f32,negative).
example(e222,f33,negative).
example(e222,f34,positive).
example(e222,f35,negative).
example(e222,f36,negative).
example(e222,f37,negative).
example(e222,f38,negative).
example(e222,f39,negative).
example(e222,f40,negative).
example(e222,f41,negative).
example(e222,f42,negative).
example(e222,f43,negative).
example(e222,f44,negative).
example(e222,f45,negative).
example(e222,f46,negative).
example(e222,f47,negative).
example(e222,f48,negative).
example(e222,f49,negative).
example(e222,f50,negative).
example(e222,f51,negative).
example(e222,f52,negative).
example(e222,f53,negative).
example(e222,f54,negative).
example(e222,f55,negative).
example(e222,f56,negative).
example(e222,f57,negative).
example(e222,f58,negative).
example(e222,f59,negative).
example(e222,f60,negative).
example(e222,f61,negative).
example(e222,f62,negative).
example(e222,f63,negative).
example(e222,f64,positive).
example(e222,f65,negative).
example(e222,f66,negative).
example(e222,f67,positive).
example(e222,f68,negative).
example(e222,f69,negative).
example(e222,f70,negative).
example(e222,f71,negative).
example(e222,f72,negative).
example(e222,f73,negative).
example(e222,f74,negative).
example(e222,f75,negative).
example(e222,f76,positive).
example(e222,f77,negative).
example(e222,f78,positive).
example(e222,f79,negative).
example(e222,f80,negative).
example(e222,f81,negative).
example(e222,f82,negative).
example(e222,f83,negative).
example(e222,f84,negative).
example(e222,f85,negative).
example(e223,f1,positive).
example(e223,f2,negative).
example(e223,f3,negative).
example(e223,f4,negative).
example(e223,f5,negative).
example(e223,f6,negative).
example(e223,f7,negative).
example(e223,f8,positive).
example(e223,f9,negative).
example(e223,f10,negative).
example(e223,f11,negative).
example(e223,f12,negative).
example(e223,f13,negative).
example(e223,f14,negative).
example(e223,f15,negative).
example(e223,f16,negative).
example(e223,f17,negative).
example(e223,f18,negative).
example(e223,f19,negative).
example(e223,f20,negative).
example(e223,f21,negative).
example(e223,f22,negative).
example(e223,f23,negative).
example(e223,f24,negative).
example(e223,f25,negative).
example(e223,f26,negative).
example(e223,f27,negative).
example(e223,f28,negative).
example(e223,f29,negative).
example(e223,f30,negative).
example(e223,f31,negative).
example(e223,f32,negative).
example(e223,f33,negative).
example(e223,f34,negative).
example(e223,f35,negative).
example(e223,f36,negative).
example(e223,f37,negative).
example(e223,f38,negative).
example(e223,f39,negative).
example(e223,f40,positive).
example(e223,f41,negative).
example(e223,f42,negative).
example(e223,f43,negative).
example(e223,f44,negative).
example(e223,f45,negative).
example(e223,f46,negative).
example(e223,f47,negative).
example(e223,f48,negative).
example(e223,f49,negative).
example(e223,f50,negative).
example(e223,f51,negative).
example(e223,f52,negative).
example(e223,f53,negative).
example(e223,f54,negative).
example(e223,f55,negative).
example(e223,f56,negative).
example(e223,f57,negative).
example(e223,f58,negative).
example(e223,f59,negative).
example(e223,f60,negative).
example(e223,f61,negative).
example(e223,f62,negative).
example(e223,f63,negative).
example(e223,f64,negative).
example(e223,f65,negative).
example(e223,f66,negative).
example(e223,f67,negative).
example(e223,f68,negative).
example(e223,f69,positive).
example(e223,f70,negative).
example(e223,f71,negative).
example(e223,f72,negative).
example(e223,f73,negative).
example(e223,f74,negative).
example(e223,f75,negative).
example(e223,f76,positive).
example(e223,f77,negative).
example(e223,f78,positive).
example(e223,f79,negative).
example(e223,f80,negative).
example(e223,f81,negative).
example(e223,f82,positive).
example(e223,f83,negative).
example(e223,f84,negative).
example(e223,f85,negative).
example(e224,f1,negative).
example(e224,f2,negative).
example(e224,f3,positive).
example(e224,f4,negative).
example(e224,f5,negative).
example(e224,f6,negative).
example(e224,f7,negative).
example(e224,f8,positive).
example(e224,f9,negative).
example(e224,f10,positive).
example(e224,f11,negative).
example(e224,f12,negative).
example(e224,f13,positive).
example(e224,f14,negative).
example(e224,f15,negative).
example(e224,f16,negative).
example(e224,f17,negative).
example(e224,f18,negative).
example(e224,f19,negative).
example(e224,f20,negative).
example(e224,f21,positive).
example(e224,f22,negative).
example(e224,f23,negative).
example(e224,f24,negative).
example(e224,f25,negative).
example(e224,f26,negative).
example(e224,f27,negative).
example(e224,f28,negative).
example(e224,f29,negative).
example(e224,f30,negative).
example(e224,f31,negative).
example(e224,f32,negative).
example(e224,f33,negative).
example(e224,f34,negative).
example(e224,f35,negative).
example(e224,f36,negative).
example(e224,f37,negative).
example(e224,f38,negative).
example(e224,f39,negative).
example(e224,f40,negative).
example(e224,f41,negative).
example(e224,f42,negative).
example(e224,f43,negative).
example(e224,f44,negative).
example(e224,f45,positive).
example(e224,f46,negative).
example(e224,f47,negative).
example(e224,f48,negative).
example(e224,f49,negative).
example(e224,f50,negative).
example(e224,f51,negative).
example(e224,f52,negative).
example(e224,f53,negative).
example(e224,f54,negative).
example(e224,f55,negative).
example(e224,f56,negative).
example(e224,f57,negative).
example(e224,f58,negative).
example(e224,f59,negative).
example(e224,f60,negative).
example(e224,f61,negative).
example(e224,f62,negative).
example(e224,f63,negative).
example(e224,f64,negative).
example(e224,f65,negative).
example(e224,f66,negative).
example(e224,f67,positive).
example(e224,f68,negative).
example(e224,f69,positive).
example(e224,f70,negative).
example(e224,f71,negative).
example(e224,f72,negative).
example(e224,f73,positive).
example(e224,f74,negative).
example(e224,f75,negative).
example(e224,f76,negative).
example(e224,f77,negative).
example(e224,f78,negative).
example(e224,f79,negative).
example(e224,f80,negative).
example(e224,f81,negative).
example(e224,f82,negative).
example(e224,f83,negative).
example(e224,f84,negative).
example(e224,f85,negative).
example(e225,f1,positive).
example(e225,f2,negative).
example(e225,f3,negative).
example(e225,f4,negative).
example(e225,f5,negative).
example(e225,f6,negative).
example(e225,f7,negative).
example(e225,f8,positive).
example(e225,f9,negative).
example(e225,f10,positive).
example(e225,f11,negative).
example(e225,f12,negative).
example(e225,f13,positive).
example(e225,f14,negative).
example(e225,f15,negative).
example(e225,f16,negative).
example(e225,f17,negative).
example(e225,f18,negative).
example(e225,f19,negative).
example(e225,f20,negative).
example(e225,f21,negative).
example(e225,f22,negative).
example(e225,f23,negative).
example(e225,f24,negative).
example(e225,f25,negative).
example(e225,f26,negative).
example(e225,f27,negative).
example(e225,f28,negative).
example(e225,f29,negative).
example(e225,f30,negative).
example(e225,f31,negative).
example(e225,f32,negative).
example(e225,f33,negative).
example(e225,f34,negative).
example(e225,f35,negative).
example(e225,f36,negative).
example(e225,f37,negative).
example(e225,f38,negative).
example(e225,f39,negative).
example(e225,f40,negative).
example(e225,f41,negative).
example(e225,f42,negative).
example(e225,f43,negative).
example(e225,f44,negative).
example(e225,f45,positive).
example(e225,f46,negative).
example(e225,f47,negative).
example(e225,f48,negative).
example(e225,f49,negative).
example(e225,f50,negative).
example(e225,f51,negative).
example(e225,f52,negative).
example(e225,f53,negative).
example(e225,f54,negative).
example(e225,f55,negative).
example(e225,f56,negative).
example(e225,f57,negative).
example(e225,f58,negative).
example(e225,f59,negative).
example(e225,f60,negative).
example(e225,f61,negative).
example(e225,f62,negative).
example(e225,f63,negative).
example(e225,f64,negative).
example(e225,f65,negative).
example(e225,f66,negative).
example(e225,f67,positive).
example(e225,f68,negative).
example(e225,f69,positive).
example(e225,f70,negative).
example(e225,f71,negative).
example(e225,f72,negative).
example(e225,f73,negative).
example(e225,f74,negative).
example(e225,f75,negative).
example(e225,f76,positive).
example(e225,f77,negative).
example(e225,f78,positive).
example(e225,f79,negative).
example(e225,f80,negative).
example(e225,f81,negative).
example(e225,f82,negative).
example(e225,f83,negative).
example(e225,f84,negative).
example(e225,f85,negative).
example(e226,f1,positive).
example(e226,f2,negative).
example(e226,f3,positive).
example(e226,f4,negative).
example(e226,f5,negative).
example(e226,f6,negative).
example(e226,f7,negative).
example(e226,f8,positive).
example(e226,f9,negative).
example(e226,f10,positive).
example(e226,f11,negative).
example(e226,f12,negative).
example(e226,f13,positive).
example(e226,f14,negative).
example(e226,f15,negative).
example(e226,f16,negative).
example(e226,f17,negative).
example(e226,f18,negative).
example(e226,f19,negative).
example(e226,f20,negative).
example(e226,f21,negative).
example(e226,f22,negative).
example(e226,f23,negative).
example(e226,f24,negative).
example(e226,f25,negative).
example(e226,f26,negative).
example(e226,f27,negative).
example(e226,f28,negative).
example(e226,f29,negative).
example(e226,f30,negative).
example(e226,f31,negative).
example(e226,f32,negative).
example(e226,f33,negative).
example(e226,f34,negative).
example(e226,f35,negative).
example(e226,f36,negative).
example(e226,f37,negative).
example(e226,f38,negative).
example(e226,f39,negative).
example(e226,f40,negative).
example(e226,f41,negative).
example(e226,f42,negative).
example(e226,f43,negative).
example(e226,f44,negative).
example(e226,f45,positive).
example(e226,f46,negative).
example(e226,f47,negative).
example(e226,f48,negative).
example(e226,f49,negative).
example(e226,f50,negative).
example(e226,f51,negative).
example(e226,f52,negative).
example(e226,f53,negative).
example(e226,f54,negative).
example(e226,f55,negative).
example(e226,f56,negative).
example(e226,f57,negative).
example(e226,f58,negative).
example(e226,f59,negative).
example(e226,f60,negative).
example(e226,f61,negative).
example(e226,f62,negative).
example(e226,f63,negative).
example(e226,f64,negative).
example(e226,f65,negative).
example(e226,f66,negative).
example(e226,f67,positive).
example(e226,f68,negative).
example(e226,f69,positive).
example(e226,f70,negative).
example(e226,f71,negative).
example(e226,f72,negative).
example(e226,f73,positive).
example(e226,f74,negative).
example(e226,f75,negative).
example(e226,f76,negative).
example(e226,f77,negative).
example(e226,f78,positive).
example(e226,f79,negative).
example(e226,f80,negative).
example(e226,f81,negative).
example(e226,f82,negative).
example(e226,f83,negative).
example(e226,f84,negative).
example(e226,f85,negative).
target(e1,positive).
target(e2,positive).
target(e3,negative).
target(e4,negative).
target(e5,positive).
target(e6,positive).
target(e7,positive).
target(e8,positive).
target(e9,negative).
target(e10,negative).
target(e11,negative).
target(e12,negative).
target(e13,negative).
target(e14,negative).
target(e15,positive).
target(e16,positive).
target(e17,negative).
target(e18,negative).
target(e19,positive).
target(e20,positive).
target(e21,positive).
target(e22,negative).
target(e23,negative).
target(e24,negative).
target(e25,negative).
target(e26,negative).
target(e27,negative).
target(e28,negative).
target(e29,negative).
target(e30,negative).
target(e31,positive).
target(e32,positive).
target(e33,negative).
target(e34,negative).
target(e35,negative).
target(e36,positive).
target(e37,positive).
target(e38,positive).
target(e39,negative).
target(e40,negative).
target(e41,positive).
target(e42,positive).
target(e43,negative).
target(e44,negative).
target(e45,negative).
target(e46,negative).
target(e47,negative).
target(e48,negative).
target(e49,negative).
target(e50,negative).
target(e51,negative).
target(e52,negative).
target(e53,negative).
target(e54,negative).
target(e55,negative).
target(e56,negative).
target(e57,negative).
target(e58,negative).
target(e59,negative).
target(e60,negative).
target(e61,negative).
target(e62,negative).
target(e63,negative).
target(e64,negative).
target(e65,negative).
target(e66,positive).
target(e67,positive).
target(e68,negative).
target(e69,positive).
target(e70,negative).
target(e71,negative).
target(e72,negative).
target(e73,negative).
target(e74,negative).
target(e75,negative).
target(e76,positive).
target(e77,positive).
target(e78,positive).
target(e79,negative).
target(e80,negative).
target(e81,negative).
target(e82,negative).
target(e83,negative).
target(e84,positive).
target(e85,positive).
target(e86,negative).
target(e87,negative).
target(e88,negative).
target(e89,negative).
target(e90,negative).
target(e91,negative).
target(e92,negative).
target(e93,negative).
target(e94,negative).
target(e95,negative).
target(e96,negative).
target(e97,negative).
target(e98,negative).
target(e99,positive).
target(e100,positive).
target(e101,negative).
target(e102,negative).
target(e103,negative).
target(e104,negative).
target(e105,negative).
target(e106,negative).
target(e107,negative).
target(e108,negative).
target(e109,negative).
target(e110,positive).
target(e111,negative).
target(e112,negative).
target(e113,negative).
target(e114,negative).
target(e115,negative).
target(e116,negative).
target(e117,negative).
target(e118,negative).
target(e119,negative).
target(e120,negative).
target(e121,negative).
target(e122,negative).
target(e123,negative).
target(e124,negative).
target(e125,negative).
target(e126,positive).
target(e127,negative).
target(e128,negative).
target(e129,negative).
target(e130,negative).
target(e131,positive).
target(e132,negative).
target(e133,negative).
target(e134,negative).
target(e135,negative).
target(e136,negative).
target(e137,negative).
target(e138,negative).
target(e139,negative).
target(e140,negative).
target(e141,negative).
target(e142,negative).
target(e143,negative).
target(e144,negative).
target(e145,negative).
target(e146,negative).
target(e147,negative).
target(e148,positive).
target(e149,positive).
target(e150,negative).
target(e151,negative).
target(e152,negative).
target(e153,positive).
target(e154,positive).
target(e155,negative).
target(e156,positive).
target(e157,negative).
target(e158,positive).
target(e159,negative).
target(e160,negative).
target(e161,negative).
target(e162,positive).
target(e163,negative).
target(e164,negative).
target(e165,negative).
target(e166,negative).
target(e167,negative).
target(e168,positive).
target(e169,positive).
target(e170,negative).
target(e171,positive).
target(e172,negative).
target(e173,negative).
target(e174,negative).
target(e175,negative).
target(e176,negative).
target(e177,negative).
target(e178,negative).
target(e179,negative).
target(e180,negative).
target(e181,negative).
target(e182,positive).
target(e183,negative).
target(e184,negative).
target(e185,negative).
target(e186,negative).
target(e187,negative).
target(e188,positive).
target(e189,positive).
target(e190,positive).
target(e191,positive).
target(e192,negative).
target(e193,negative).
target(e194,negative).
target(e195,negative).
target(e196,positive).
target(e197,positive).
target(e198,negative).
target(e199,negative).
target(e200,negative).
target(e201,negative).
target(e202,negative).
target(e203,negative).
target(e204,positive).
target(e205,positive).
target(e206,negative).
target(e207,negative).
target(e208,negative).
target(e209,negative).
target(e210,positive).
target(e211,positive).
target(e212,negative).
target(e213,negative).
target(e214,negative).
target(e215,negative).
target(e216,negative).
target(e217,negative).
target(e218,negative).
target(e219,negative).
target(e220,positive).
target(e221,positive).
target(e222,positive).
target(e223,negative).
target(e224,negative).
target(e225,positive).
target(e226,positive).
feature(f1; f2; f3; f4; f5; f6; f7; f8; f9; f10; f11; f12; f13; f14; f15; f16; f17; f18; f19; f20; f21; f22; f23; f24; f25; f26; f27; f28; f29; f30; f31; f32; f33; f34; f35; f36; f37; f38; f39; f40; f41; f42; f43; f44; f45; f46; f47; f48; f49; f50; f51; f52; f53; f54; f55; f56; f57; f58; f59; f60; f61; f62; f63; f64; f65; f66; f67; f68; f69; f70; f71; f72; f73; f74; f75; f76; f77; f78; f79; f80; f81; f82; f83; f84; f85).
% |--- f1 <= 0.50
% |   |--- class: 0
% |--- f1 >  0.50
% |   |--- f22 <= 0.50
% |   |   |--- f67 <= 0.50
% |   |   |   |--- f9 <= 0.50
% |   |   |   |   |--- f44 <= 0.50
% |   |   |   |   |   |--- class: 0
% |   |   |   |   |--- f44 >  0.50
% |   |   |   |   |   |--- class: 1
% |   |   |   |--- f9 >  0.50
% |   |   |   |   |--- class: 1
% |   |   |--- f67 >  0.50
% |   |   |   |--- f21 <= 0.50
% |   |   |   |   |--- f5 <= 0.50
% |   |   |   |   |   |--- class: 1
% |   |   |   |   |--- f5 >  0.50
% |   |   |   |   |   |--- class: 0
% |   |   |   |--- f21 >  0.50
% |   |   |   |   |--- class: 0
% |   |--- f22 >  0.50
% |   |   |--- f42 <= 0.50
% |   |   |   |--- f41 <= 0.50
% |   |   |   |   |--- f12 <= 0.50
% |   |   |   |   |   |--- class: 0
% |   |   |   |   |--- f12 >  0.50
% |   |   |   |   |   |--- class: 1
% |   |   |   |--- f41 >  0.50
% |   |   |   |   |--- class: 1
% |   |   |--- f42 >  0.50
% |   |   |   |--- class: 1
% Accuracy of the decision tree classifier on the training data: 1.00
% Depth of the decision tree classifier: 5
% Number of nodes in the decision tree classifier: 21
% Number of leaf nodes in the decision tree classifier: 11
