example(e1,f1,negative).
example(e1,f2,negative).
example(e1,f3,negative).
example(e1,f4,positive).
example(e1,f5,negative).
example(e1,f6,negative).
example(e1,f7,positive).
example(e1,f8,positive).
example(e1,f9,negative).
example(e1,f10,negative).
example(e1,f11,negative).
example(e1,f12,negative).
example(e1,f13,negative).
example(e1,f14,negative).
example(e1,f15,negative).
example(e1,f16,negative).
example(e1,f17,positive).
example(e1,f18,negative).
example(e1,f19,negative).
example(e1,f20,negative).
example(e1,f21,negative).
example(e1,f22,negative).
example(e1,f23,negative).
example(e1,f24,negative).
example(e1,f25,positive).
example(e1,f26,negative).
example(e1,f27,negative).
example(e1,f28,negative).
example(e1,f29,negative).
example(e1,f30,negative).
example(e1,f31,negative).
example(e1,f32,positive).
example(e1,f33,positive).
example(e1,f34,negative).
example(e2,f1,negative).
example(e2,f2,negative).
example(e2,f3,negative).
example(e2,f4,positive).
example(e2,f5,negative).
example(e2,f6,positive).
example(e2,f7,negative).
example(e2,f8,positive).
example(e2,f9,negative).
example(e2,f10,negative).
example(e2,f11,negative).
example(e2,f12,negative).
example(e2,f13,negative).
example(e2,f14,negative).
example(e2,f15,negative).
example(e2,f16,negative).
example(e2,f17,negative).
example(e2,f18,negative).
example(e2,f19,negative).
example(e2,f20,negative).
example(e2,f21,positive).
example(e2,f22,negative).
example(e2,f23,negative).
example(e2,f24,negative).
example(e2,f25,positive).
example(e2,f26,negative).
example(e2,f27,negative).
example(e2,f28,negative).
example(e2,f29,negative).
example(e2,f30,negative).
example(e2,f31,negative).
example(e2,f32,negative).
example(e2,f33,positive).
example(e2,f34,negative).
example(e3,f1,negative).
example(e3,f2,negative).
example(e3,f3,negative).
example(e3,f4,positive).
example(e3,f5,negative).
example(e3,f6,positive).
example(e3,f7,negative).
example(e3,f8,negative).
example(e3,f9,negative).
example(e3,f10,negative).
example(e3,f11,negative).
example(e3,f12,negative).
example(e3,f13,negative).
example(e3,f14,negative).
example(e3,f15,negative).
example(e3,f16,negative).
example(e3,f17,positive).
example(e3,f18,negative).
example(e3,f19,negative).
example(e3,f20,negative).
example(e3,f21,negative).
example(e3,f22,negative).
example(e3,f23,negative).
example(e3,f24,negative).
example(e3,f25,positive).
example(e3,f26,negative).
example(e3,f27,negative).
example(e3,f28,negative).
example(e3,f29,negative).
example(e3,f30,negative).
example(e3,f31,negative).
example(e3,f32,positive).
example(e3,f33,positive).
example(e3,f34,negative).
example(e4,f1,negative).
example(e4,f2,negative).
example(e4,f3,positive).
example(e4,f4,negative).
example(e4,f5,positive).
example(e4,f6,positive).
example(e4,f7,negative).
example(e4,f8,negative).
example(e4,f9,negative).
example(e4,f10,negative).
example(e4,f11,negative).
example(e4,f12,negative).
example(e4,f13,negative).
example(e4,f14,negative).
example(e4,f15,negative).
example(e4,f16,negative).
example(e4,f17,negative).
example(e4,f18,positive).
example(e4,f19,negative).
example(e4,f20,negative).
example(e4,f21,negative).
example(e4,f22,negative).
example(e4,f23,negative).
example(e4,f24,positive).
example(e4,f25,negative).
example(e4,f26,negative).
example(e4,f27,negative).
example(e4,f28,negative).
example(e4,f29,negative).
example(e4,f30,positive).
example(e4,f31,positive).
example(e4,f32,positive).
example(e4,f33,positive).
example(e4,f34,negative).
example(e5,f1,negative).
example(e5,f2,negative).
example(e5,f3,negative).
example(e5,f4,negative).
example(e5,f5,negative).
example(e5,f6,negative).
example(e5,f7,positive).
example(e5,f8,positive).
example(e5,f9,negative).
example(e5,f10,negative).
example(e5,f11,negative).
example(e5,f12,negative).
example(e5,f13,negative).
example(e5,f14,negative).
example(e5,f15,negative).
example(e5,f16,negative).
example(e5,f17,negative).
example(e5,f18,negative).
example(e5,f19,positive).
example(e5,f20,negative).
example(e5,f21,negative).
example(e5,f22,negative).
example(e5,f23,negative).
example(e5,f24,negative).
example(e5,f25,positive).
example(e5,f26,negative).
example(e5,f27,negative).
example(e5,f28,negative).
example(e5,f29,negative).
example(e5,f30,positive).
example(e5,f31,positive).
example(e5,f32,negative).
example(e5,f33,positive).
example(e5,f34,negative).
example(e6,f1,negative).
example(e6,f2,negative).
example(e6,f3,negative).
example(e6,f4,negative).
example(e6,f5,negative).
example(e6,f6,positive).
example(e6,f7,negative).
example(e6,f8,positive).
example(e6,f9,negative).
example(e6,f10,negative).
example(e6,f11,negative).
example(e6,f12,negative).
example(e6,f13,negative).
example(e6,f14,negative).
example(e6,f15,negative).
example(e6,f16,negative).
example(e6,f17,negative).
example(e6,f18,negative).
example(e6,f19,negative).
example(e6,f20,negative).
example(e6,f21,positive).
example(e6,f22,negative).
example(e6,f23,negative).
example(e6,f24,negative).
example(e6,f25,negative).
example(e6,f26,negative).
example(e6,f27,negative).
example(e6,f28,positive).
example(e6,f29,negative).
example(e6,f30,positive).
example(e6,f31,positive).
example(e6,f32,negative).
example(e6,f33,positive).
example(e6,f34,negative).
example(e7,f1,negative).
example(e7,f2,negative).
example(e7,f3,negative).
example(e7,f4,positive).
example(e7,f5,negative).
example(e7,f6,negative).
example(e7,f7,positive).
example(e7,f8,positive).
example(e7,f9,negative).
example(e7,f10,negative).
example(e7,f11,negative).
example(e7,f12,negative).
example(e7,f13,negative).
example(e7,f14,negative).
example(e7,f15,negative).
example(e7,f16,positive).
example(e7,f17,negative).
example(e7,f18,negative).
example(e7,f19,negative).
example(e7,f20,negative).
example(e7,f21,negative).
example(e7,f22,negative).
example(e7,f23,negative).
example(e7,f24,negative).
example(e7,f25,positive).
example(e7,f26,negative).
example(e7,f27,negative).
example(e7,f28,negative).
example(e7,f29,negative).
example(e7,f30,negative).
example(e7,f31,negative).
example(e7,f32,negative).
example(e7,f33,positive).
example(e7,f34,negative).
example(e8,f1,negative).
example(e8,f2,negative).
example(e8,f3,negative).
example(e8,f4,negative).
example(e8,f5,negative).
example(e8,f6,negative).
example(e8,f7,negative).
example(e8,f8,positive).
example(e8,f9,negative).
example(e8,f10,negative).
example(e8,f11,positive).
example(e8,f12,negative).
example(e8,f13,negative).
example(e8,f14,negative).
example(e8,f15,negative).
example(e8,f16,negative).
example(e8,f17,negative).
example(e8,f18,negative).
example(e8,f19,negative).
example(e8,f20,negative).
example(e8,f21,negative).
example(e8,f22,negative).
example(e8,f23,negative).
example(e8,f24,negative).
example(e8,f25,negative).
example(e8,f26,negative).
example(e8,f27,negative).
example(e8,f28,positive).
example(e8,f29,negative).
example(e8,f30,positive).
example(e8,f31,positive).
example(e8,f32,negative).
example(e8,f33,positive).
example(e8,f34,negative).
example(e9,f1,negative).
example(e9,f2,negative).
example(e9,f3,negative).
example(e9,f4,positive).
example(e9,f5,negative).
example(e9,f6,negative).
example(e9,f7,positive).
example(e9,f8,negative).
example(e9,f9,negative).
example(e9,f10,negative).
example(e9,f11,negative).
example(e9,f12,negative).
example(e9,f13,negative).
example(e9,f14,negative).
example(e9,f15,positive).
example(e9,f16,negative).
example(e9,f17,negative).
example(e9,f18,negative).
example(e9,f19,negative).
example(e9,f20,negative).
example(e9,f21,negative).
example(e9,f22,negative).
example(e9,f23,negative).
example(e9,f24,negative).
example(e9,f25,negative).
example(e9,f26,negative).
example(e9,f27,negative).
example(e9,f28,positive).
example(e9,f29,negative).
example(e9,f30,negative).
example(e9,f31,negative).
example(e9,f32,negative).
example(e9,f33,positive).
example(e9,f34,negative).
example(e10,f1,negative).
example(e10,f2,negative).
example(e10,f3,negative).
example(e10,f4,negative).
example(e10,f5,negative).
example(e10,f6,negative).
example(e10,f7,negative).
example(e10,f8,positive).
example(e10,f9,negative).
example(e10,f10,negative).
example(e10,f11,negative).
example(e10,f12,negative).
example(e10,f13,negative).
example(e10,f14,negative).
example(e10,f15,negative).
example(e10,f16,negative).
example(e10,f17,positive).
example(e10,f18,negative).
example(e10,f19,negative).
example(e10,f20,negative).
example(e10,f21,negative).
example(e10,f22,negative).
example(e10,f23,negative).
example(e10,f24,negative).
example(e10,f25,negative).
example(e10,f26,negative).
example(e10,f27,negative).
example(e10,f28,positive).
example(e10,f29,negative).
example(e10,f30,positive).
example(e10,f31,positive).
example(e10,f32,positive).
example(e10,f33,positive).
example(e10,f34,negative).
example(e11,f1,negative).
example(e11,f2,negative).
example(e11,f3,negative).
example(e11,f4,negative).
example(e11,f5,negative).
example(e11,f6,negative).
example(e11,f7,positive).
example(e11,f8,positive).
example(e11,f9,negative).
example(e11,f10,negative).
example(e11,f11,negative).
example(e11,f12,negative).
example(e11,f13,negative).
example(e11,f14,positive).
example(e11,f15,negative).
example(e11,f16,negative).
example(e11,f17,negative).
example(e11,f18,negative).
example(e11,f19,negative).
example(e11,f20,negative).
example(e11,f21,negative).
example(e11,f22,negative).
example(e11,f23,negative).
example(e11,f24,negative).
example(e11,f25,negative).
example(e11,f26,negative).
example(e11,f27,negative).
example(e11,f28,positive).
example(e11,f29,negative).
example(e11,f30,positive).
example(e11,f31,positive).
example(e11,f32,positive).
example(e11,f33,positive).
example(e11,f34,negative).
example(e12,f1,negative).
example(e12,f2,negative).
example(e12,f3,negative).
example(e12,f4,negative).
example(e12,f5,negative).
example(e12,f6,positive).
example(e12,f7,positive).
example(e12,f8,positive).
example(e12,f9,negative).
example(e12,f10,negative).
example(e12,f11,positive).
example(e12,f12,negative).
example(e12,f13,negative).
example(e12,f14,negative).
example(e12,f15,negative).
example(e12,f16,negative).
example(e12,f17,negative).
example(e12,f18,negative).
example(e12,f19,negative).
example(e12,f20,negative).
example(e12,f21,negative).
example(e12,f22,negative).
example(e12,f23,negative).
example(e12,f24,negative).
example(e12,f25,negative).
example(e12,f26,negative).
example(e12,f27,negative).
example(e12,f28,positive).
example(e12,f29,negative).
example(e12,f30,positive).
example(e12,f31,positive).
example(e12,f32,positive).
example(e12,f33,positive).
example(e12,f34,negative).
example(e13,f1,negative).
example(e13,f2,negative).
example(e13,f3,negative).
example(e13,f4,negative).
example(e13,f5,negative).
example(e13,f6,negative).
example(e13,f7,positive).
example(e13,f8,negative).
example(e13,f9,negative).
example(e13,f10,negative).
example(e13,f11,negative).
example(e13,f12,negative).
example(e13,f13,negative).
example(e13,f14,negative).
example(e13,f15,negative).
example(e13,f16,negative).
example(e13,f17,negative).
example(e13,f18,negative).
example(e13,f19,negative).
example(e13,f20,negative).
example(e13,f21,positive).
example(e13,f22,negative).
example(e13,f23,negative).
example(e13,f24,negative).
example(e13,f25,negative).
example(e13,f26,negative).
example(e13,f27,negative).
example(e13,f28,positive).
example(e13,f29,negative).
example(e13,f30,positive).
example(e13,f31,positive).
example(e13,f32,positive).
example(e13,f33,positive).
example(e13,f34,negative).
example(e14,f1,negative).
example(e14,f2,negative).
example(e14,f3,negative).
example(e14,f4,negative).
example(e14,f5,positive).
example(e14,f6,negative).
example(e14,f7,positive).
example(e14,f8,positive).
example(e14,f9,negative).
example(e14,f10,negative).
example(e14,f11,negative).
example(e14,f12,negative).
example(e14,f13,negative).
example(e14,f14,positive).
example(e14,f15,negative).
example(e14,f16,negative).
example(e14,f17,negative).
example(e14,f18,negative).
example(e14,f19,negative).
example(e14,f20,negative).
example(e14,f21,negative).
example(e14,f22,negative).
example(e14,f23,negative).
example(e14,f24,negative).
example(e14,f25,negative).
example(e14,f26,negative).
example(e14,f27,negative).
example(e14,f28,positive).
example(e14,f29,negative).
example(e14,f30,positive).
example(e14,f31,positive).
example(e14,f32,positive).
example(e14,f33,positive).
example(e14,f34,negative).
example(e15,f1,negative).
example(e15,f2,negative).
example(e15,f3,negative).
example(e15,f4,positive).
example(e15,f5,negative).
example(e15,f6,positive).
example(e15,f7,positive).
example(e15,f8,positive).
example(e15,f9,negative).
example(e15,f10,negative).
example(e15,f11,negative).
example(e15,f12,negative).
example(e15,f13,negative).
example(e15,f14,negative).
example(e15,f15,negative).
example(e15,f16,negative).
example(e15,f17,negative).
example(e15,f18,negative).
example(e15,f19,negative).
example(e15,f20,negative).
example(e15,f21,positive).
example(e15,f22,negative).
example(e15,f23,negative).
example(e15,f24,negative).
example(e15,f25,positive).
example(e15,f26,negative).
example(e15,f27,negative).
example(e15,f28,negative).
example(e15,f29,negative).
example(e15,f30,negative).
example(e15,f31,negative).
example(e15,f32,positive).
example(e15,f33,positive).
example(e15,f34,negative).
example(e16,f1,negative).
example(e16,f2,negative).
example(e16,f3,negative).
example(e16,f4,positive).
example(e16,f5,positive).
example(e16,f6,negative).
example(e16,f7,positive).
example(e16,f8,positive).
example(e16,f9,negative).
example(e16,f10,negative).
example(e16,f11,negative).
example(e16,f12,negative).
example(e16,f13,negative).
example(e16,f14,negative).
example(e16,f15,negative).
example(e16,f16,negative).
example(e16,f17,positive).
example(e16,f18,negative).
example(e16,f19,negative).
example(e16,f20,negative).
example(e16,f21,negative).
example(e16,f22,negative).
example(e16,f23,negative).
example(e16,f24,negative).
example(e16,f25,positive).
example(e16,f26,negative).
example(e16,f27,negative).
example(e16,f28,negative).
example(e16,f29,negative).
example(e16,f30,negative).
example(e16,f31,negative).
example(e16,f32,negative).
example(e16,f33,positive).
example(e16,f34,negative).
example(e17,f1,negative).
example(e17,f2,negative).
example(e17,f3,negative).
example(e17,f4,negative).
example(e17,f5,negative).
example(e17,f6,positive).
example(e17,f7,positive).
example(e17,f8,positive).
example(e17,f9,negative).
example(e17,f10,negative).
example(e17,f11,negative).
example(e17,f12,negative).
example(e17,f13,negative).
example(e17,f14,negative).
example(e17,f15,negative).
example(e17,f16,negative).
example(e17,f17,negative).
example(e17,f18,negative).
example(e17,f19,negative).
example(e17,f20,negative).
example(e17,f21,negative).
example(e17,f22,positive).
example(e17,f23,negative).
example(e17,f24,negative).
example(e17,f25,positive).
example(e17,f26,negative).
example(e17,f27,negative).
example(e17,f28,negative).
example(e17,f29,negative).
example(e17,f30,positive).
example(e17,f31,positive).
example(e17,f32,positive).
example(e17,f33,positive).
example(e17,f34,negative).
example(e18,f1,negative).
example(e18,f2,negative).
example(e18,f3,negative).
example(e18,f4,negative).
example(e18,f5,negative).
example(e18,f6,negative).
example(e18,f7,negative).
example(e18,f8,positive).
example(e18,f9,negative).
example(e18,f10,negative).
example(e18,f11,negative).
example(e18,f12,negative).
example(e18,f13,negative).
example(e18,f14,negative).
example(e18,f15,negative).
example(e18,f16,negative).
example(e18,f17,negative).
example(e18,f18,negative).
example(e18,f19,positive).
example(e18,f20,negative).
example(e18,f21,negative).
example(e18,f22,negative).
example(e18,f23,negative).
example(e18,f24,negative).
example(e18,f25,positive).
example(e18,f26,negative).
example(e18,f27,negative).
example(e18,f28,negative).
example(e18,f29,negative).
example(e18,f30,positive).
example(e18,f31,positive).
example(e18,f32,negative).
example(e18,f33,positive).
example(e18,f34,negative).
example(e19,f1,negative).
example(e19,f2,negative).
example(e19,f3,negative).
example(e19,f4,positive).
example(e19,f5,negative).
example(e19,f6,negative).
example(e19,f7,positive).
example(e19,f8,negative).
example(e19,f9,negative).
example(e19,f10,negative).
example(e19,f11,negative).
example(e19,f12,negative).
example(e19,f13,negative).
example(e19,f14,negative).
example(e19,f15,negative).
example(e19,f16,negative).
example(e19,f17,positive).
example(e19,f18,negative).
example(e19,f19,negative).
example(e19,f20,negative).
example(e19,f21,negative).
example(e19,f22,negative).
example(e19,f23,negative).
example(e19,f24,negative).
example(e19,f25,positive).
example(e19,f26,negative).
example(e19,f27,negative).
example(e19,f28,negative).
example(e19,f29,negative).
example(e19,f30,negative).
example(e19,f31,negative).
example(e19,f32,negative).
example(e19,f33,positive).
example(e19,f34,negative).
example(e20,f1,negative).
example(e20,f2,negative).
example(e20,f3,negative).
example(e20,f4,negative).
example(e20,f5,negative).
example(e20,f6,negative).
example(e20,f7,negative).
example(e20,f8,positive).
example(e20,f9,negative).
example(e20,f10,negative).
example(e20,f11,positive).
example(e20,f12,negative).
example(e20,f13,negative).
example(e20,f14,negative).
example(e20,f15,negative).
example(e20,f16,negative).
example(e20,f17,negative).
example(e20,f18,negative).
example(e20,f19,negative).
example(e20,f20,negative).
example(e20,f21,negative).
example(e20,f22,negative).
example(e20,f23,negative).
example(e20,f24,negative).
example(e20,f25,positive).
example(e20,f26,negative).
example(e20,f27,negative).
example(e20,f28,negative).
example(e20,f29,negative).
example(e20,f30,positive).
example(e20,f31,positive).
example(e20,f32,negative).
example(e20,f33,positive).
example(e20,f34,negative).
example(e21,f1,negative).
example(e21,f2,negative).
example(e21,f3,negative).
example(e21,f4,positive).
example(e21,f5,negative).
example(e21,f6,negative).
example(e21,f7,negative).
example(e21,f8,positive).
example(e21,f9,negative).
example(e21,f10,negative).
example(e21,f11,negative).
example(e21,f12,negative).
example(e21,f13,negative).
example(e21,f14,negative).
example(e21,f15,negative).
example(e21,f16,negative).
example(e21,f17,negative).
example(e21,f18,negative).
example(e21,f19,positive).
example(e21,f20,negative).
example(e21,f21,negative).
example(e21,f22,negative).
example(e21,f23,negative).
example(e21,f24,negative).
example(e21,f25,positive).
example(e21,f26,negative).
example(e21,f27,negative).
example(e21,f28,negative).
example(e21,f29,negative).
example(e21,f30,negative).
example(e21,f31,negative).
example(e21,f32,negative).
example(e21,f33,positive).
example(e21,f34,negative).
example(e22,f1,negative).
example(e22,f2,negative).
example(e22,f3,negative).
example(e22,f4,positive).
example(e22,f5,negative).
example(e22,f6,positive).
example(e22,f7,negative).
example(e22,f8,negative).
example(e22,f9,negative).
example(e22,f10,negative).
example(e22,f11,negative).
example(e22,f12,negative).
example(e22,f13,negative).
example(e22,f14,negative).
example(e22,f15,negative).
example(e22,f16,negative).
example(e22,f17,negative).
example(e22,f18,negative).
example(e22,f19,positive).
example(e22,f20,negative).
example(e22,f21,negative).
example(e22,f22,negative).
example(e22,f23,negative).
example(e22,f24,negative).
example(e22,f25,positive).
example(e22,f26,negative).
example(e22,f27,negative).
example(e22,f28,negative).
example(e22,f29,negative).
example(e22,f30,positive).
example(e22,f31,negative).
example(e22,f32,positive).
example(e22,f33,positive).
example(e22,f34,negative).
example(e23,f1,negative).
example(e23,f2,negative).
example(e23,f3,negative).
example(e23,f4,positive).
example(e23,f5,negative).
example(e23,f6,positive).
example(e23,f7,positive).
example(e23,f8,positive).
example(e23,f9,negative).
example(e23,f10,negative).
example(e23,f11,negative).
example(e23,f12,negative).
example(e23,f13,negative).
example(e23,f14,negative).
example(e23,f15,positive).
example(e23,f16,negative).
example(e23,f17,negative).
example(e23,f18,negative).
example(e23,f19,negative).
example(e23,f20,negative).
example(e23,f21,negative).
example(e23,f22,negative).
example(e23,f23,negative).
example(e23,f24,negative).
example(e23,f25,positive).
example(e23,f26,negative).
example(e23,f27,negative).
example(e23,f28,negative).
example(e23,f29,negative).
example(e23,f30,negative).
example(e23,f31,negative).
example(e23,f32,negative).
example(e23,f33,positive).
example(e23,f34,negative).
example(e24,f1,negative).
example(e24,f2,negative).
example(e24,f3,negative).
example(e24,f4,positive).
example(e24,f5,negative).
example(e24,f6,positive).
example(e24,f7,positive).
example(e24,f8,positive).
example(e24,f9,negative).
example(e24,f10,negative).
example(e24,f11,negative).
example(e24,f12,negative).
example(e24,f13,negative).
example(e24,f14,negative).
example(e24,f15,negative).
example(e24,f16,negative).
example(e24,f17,positive).
example(e24,f18,negative).
example(e24,f19,negative).
example(e24,f20,negative).
example(e24,f21,negative).
example(e24,f22,negative).
example(e24,f23,negative).
example(e24,f24,negative).
example(e24,f25,positive).
example(e24,f26,negative).
example(e24,f27,negative).
example(e24,f28,negative).
example(e24,f29,negative).
example(e24,f30,positive).
example(e24,f31,negative).
example(e24,f32,negative).
example(e24,f33,positive).
example(e24,f34,negative).
example(e25,f1,negative).
example(e25,f2,negative).
example(e25,f3,negative).
example(e25,f4,positive).
example(e25,f5,negative).
example(e25,f6,negative).
example(e25,f7,positive).
example(e25,f8,positive).
example(e25,f9,negative).
example(e25,f10,negative).
example(e25,f11,negative).
example(e25,f12,negative).
example(e25,f13,negative).
example(e25,f14,negative).
example(e25,f15,negative).
example(e25,f16,negative).
example(e25,f17,negative).
example(e25,f18,negative).
example(e25,f19,positive).
example(e25,f20,negative).
example(e25,f21,negative).
example(e25,f22,negative).
example(e25,f23,negative).
example(e25,f24,negative).
example(e25,f25,positive).
example(e25,f26,negative).
example(e25,f27,negative).
example(e25,f28,negative).
example(e25,f29,negative).
example(e25,f30,negative).
example(e25,f31,negative).
example(e25,f32,negative).
example(e25,f33,positive).
example(e25,f34,negative).
example(e26,f1,negative).
example(e26,f2,negative).
example(e26,f3,negative).
example(e26,f4,negative).
example(e26,f5,positive).
example(e26,f6,positive).
example(e26,f7,positive).
example(e26,f8,positive).
example(e26,f9,negative).
example(e26,f10,negative).
example(e26,f11,negative).
example(e26,f12,negative).
example(e26,f13,positive).
example(e26,f14,negative).
example(e26,f15,negative).
example(e26,f16,negative).
example(e26,f17,negative).
example(e26,f18,negative).
example(e26,f19,negative).
example(e26,f20,negative).
example(e26,f21,negative).
example(e26,f22,negative).
example(e26,f23,negative).
example(e26,f24,negative).
example(e26,f25,negative).
example(e26,f26,negative).
example(e26,f27,negative).
example(e26,f28,positive).
example(e26,f29,negative).
example(e26,f30,positive).
example(e26,f31,positive).
example(e26,f32,positive).
example(e26,f33,positive).
example(e26,f34,negative).
example(e27,f1,negative).
example(e27,f2,negative).
example(e27,f3,negative).
example(e27,f4,positive).
example(e27,f5,negative).
example(e27,f6,negative).
example(e27,f7,positive).
example(e27,f8,negative).
example(e27,f9,negative).
example(e27,f10,negative).
example(e27,f11,negative).
example(e27,f12,negative).
example(e27,f13,negative).
example(e27,f14,negative).
example(e27,f15,negative).
example(e27,f16,negative).
example(e27,f17,positive).
example(e27,f18,negative).
example(e27,f19,negative).
example(e27,f20,negative).
example(e27,f21,negative).
example(e27,f22,negative).
example(e27,f23,negative).
example(e27,f24,negative).
example(e27,f25,positive).
example(e27,f26,negative).
example(e27,f27,negative).
example(e27,f28,negative).
example(e27,f29,negative).
example(e27,f30,negative).
example(e27,f31,negative).
example(e27,f32,negative).
example(e27,f33,positive).
example(e27,f34,negative).
example(e28,f1,negative).
example(e28,f2,negative).
example(e28,f3,negative).
example(e28,f4,negative).
example(e28,f5,negative).
example(e28,f6,negative).
example(e28,f7,positive).
example(e28,f8,negative).
example(e28,f9,negative).
example(e28,f10,negative).
example(e28,f11,negative).
example(e28,f12,negative).
example(e28,f13,negative).
example(e28,f14,negative).
example(e28,f15,negative).
example(e28,f16,negative).
example(e28,f17,negative).
example(e28,f18,negative).
example(e28,f19,negative).
example(e28,f20,negative).
example(e28,f21,positive).
example(e28,f22,negative).
example(e28,f23,negative).
example(e28,f24,negative).
example(e28,f25,negative).
example(e28,f26,negative).
example(e28,f27,negative).
example(e28,f28,positive).
example(e28,f29,negative).
example(e28,f30,positive).
example(e28,f31,positive).
example(e28,f32,positive).
example(e28,f33,positive).
example(e28,f34,negative).
example(e29,f1,negative).
example(e29,f2,negative).
example(e29,f3,negative).
example(e29,f4,negative).
example(e29,f5,negative).
example(e29,f6,negative).
example(e29,f7,negative).
example(e29,f8,positive).
example(e29,f9,negative).
example(e29,f10,negative).
example(e29,f11,negative).
example(e29,f12,negative).
example(e29,f13,negative).
example(e29,f14,negative).
example(e29,f15,negative).
example(e29,f16,negative).
example(e29,f17,negative).
example(e29,f18,negative).
example(e29,f19,negative).
example(e29,f20,negative).
example(e29,f21,positive).
example(e29,f22,negative).
example(e29,f23,negative).
example(e29,f24,negative).
example(e29,f25,positive).
example(e29,f26,negative).
example(e29,f27,negative).
example(e29,f28,negative).
example(e29,f29,negative).
example(e29,f30,positive).
example(e29,f31,positive).
example(e29,f32,negative).
example(e29,f33,positive).
example(e29,f34,negative).
example(e30,f1,negative).
example(e30,f2,negative).
example(e30,f3,negative).
example(e30,f4,negative).
example(e30,f5,negative).
example(e30,f6,negative).
example(e30,f7,positive).
example(e30,f8,positive).
example(e30,f9,negative).
example(e30,f10,negative).
example(e30,f11,negative).
example(e30,f12,negative).
example(e30,f13,negative).
example(e30,f14,negative).
example(e30,f15,negative).
example(e30,f16,negative).
example(e30,f17,negative).
example(e30,f18,negative).
example(e30,f19,negative).
example(e30,f20,negative).
example(e30,f21,positive).
example(e30,f22,negative).
example(e30,f23,negative).
example(e30,f24,negative).
example(e30,f25,positive).
example(e30,f26,negative).
example(e30,f27,negative).
example(e30,f28,negative).
example(e30,f29,negative).
example(e30,f30,positive).
example(e30,f31,positive).
example(e30,f32,positive).
example(e30,f33,positive).
example(e30,f34,negative).
example(e31,f1,negative).
example(e31,f2,negative).
example(e31,f3,negative).
example(e31,f4,negative).
example(e31,f5,negative).
example(e31,f6,negative).
example(e31,f7,positive).
example(e31,f8,positive).
example(e31,f9,negative).
example(e31,f10,negative).
example(e31,f11,negative).
example(e31,f12,negative).
example(e31,f13,negative).
example(e31,f14,negative).
example(e31,f15,negative).
example(e31,f16,negative).
example(e31,f17,negative).
example(e31,f18,negative).
example(e31,f19,negative).
example(e31,f20,negative).
example(e31,f21,positive).
example(e31,f22,negative).
example(e31,f23,negative).
example(e31,f24,negative).
example(e31,f25,negative).
example(e31,f26,negative).
example(e31,f27,negative).
example(e31,f28,positive).
example(e31,f29,negative).
example(e31,f30,positive).
example(e31,f31,positive).
example(e31,f32,positive).
example(e31,f33,positive).
example(e31,f34,negative).
example(e32,f1,negative).
example(e32,f2,negative).
example(e32,f3,positive).
example(e32,f4,positive).
example(e32,f5,negative).
example(e32,f6,negative).
example(e32,f7,negative).
example(e32,f8,negative).
example(e32,f9,negative).
example(e32,f10,negative).
example(e32,f11,negative).
example(e32,f12,negative).
example(e32,f13,negative).
example(e32,f14,positive).
example(e32,f15,negative).
example(e32,f16,negative).
example(e32,f17,negative).
example(e32,f18,negative).
example(e32,f19,negative).
example(e32,f20,negative).
example(e32,f21,negative).
example(e32,f22,negative).
example(e32,f23,negative).
example(e32,f24,negative).
example(e32,f25,negative).
example(e32,f26,negative).
example(e32,f27,negative).
example(e32,f28,positive).
example(e32,f29,negative).
example(e32,f30,negative).
example(e32,f31,negative).
example(e32,f32,positive).
example(e32,f33,positive).
example(e32,f34,negative).
example(e33,f1,negative).
example(e33,f2,negative).
example(e33,f3,negative).
example(e33,f4,positive).
example(e33,f5,negative).
example(e33,f6,negative).
example(e33,f7,positive).
example(e33,f8,negative).
example(e33,f9,negative).
example(e33,f10,negative).
example(e33,f11,negative).
example(e33,f12,negative).
example(e33,f13,negative).
example(e33,f14,negative).
example(e33,f15,negative).
example(e33,f16,negative).
example(e33,f17,negative).
example(e33,f18,negative).
example(e33,f19,negative).
example(e33,f20,negative).
example(e33,f21,positive).
example(e33,f22,negative).
example(e33,f23,negative).
example(e33,f24,negative).
example(e33,f25,negative).
example(e33,f26,negative).
example(e33,f27,negative).
example(e33,f28,positive).
example(e33,f29,negative).
example(e33,f30,positive).
example(e33,f31,negative).
example(e33,f32,positive).
example(e33,f33,positive).
example(e33,f34,negative).
example(e34,f1,negative).
example(e34,f2,negative).
example(e34,f3,negative).
example(e34,f4,negative).
example(e34,f5,negative).
example(e34,f6,negative).
example(e34,f7,positive).
example(e34,f8,positive).
example(e34,f9,negative).
example(e34,f10,negative).
example(e34,f11,negative).
example(e34,f12,negative).
example(e34,f13,negative).
example(e34,f14,negative).
example(e34,f15,negative).
example(e34,f16,negative).
example(e34,f17,negative).
example(e34,f18,negative).
example(e34,f19,negative).
example(e34,f20,negative).
example(e34,f21,negative).
example(e34,f22,positive).
example(e34,f23,negative).
example(e34,f24,negative).
example(e34,f25,negative).
example(e34,f26,negative).
example(e34,f27,negative).
example(e34,f28,positive).
example(e34,f29,negative).
example(e34,f30,positive).
example(e34,f31,positive).
example(e34,f32,positive).
example(e34,f33,positive).
example(e34,f34,negative).
example(e35,f1,negative).
example(e35,f2,negative).
example(e35,f3,negative).
example(e35,f4,negative).
example(e35,f5,negative).
example(e35,f6,negative).
example(e35,f7,positive).
example(e35,f8,positive).
example(e35,f9,negative).
example(e35,f10,negative).
example(e35,f11,negative).
example(e35,f12,negative).
example(e35,f13,negative).
example(e35,f14,negative).
example(e35,f15,negative).
example(e35,f16,negative).
example(e35,f17,negative).
example(e35,f18,negative).
example(e35,f19,negative).
example(e35,f20,positive).
example(e35,f21,negative).
example(e35,f22,negative).
example(e35,f23,negative).
example(e35,f24,negative).
example(e35,f25,positive).
example(e35,f26,negative).
example(e35,f27,negative).
example(e35,f28,negative).
example(e35,f29,negative).
example(e35,f30,negative).
example(e35,f31,positive).
example(e35,f32,positive).
example(e35,f33,positive).
example(e35,f34,negative).
example(e36,f1,negative).
example(e36,f2,negative).
example(e36,f3,negative).
example(e36,f4,negative).
example(e36,f5,positive).
example(e36,f6,negative).
example(e36,f7,positive).
example(e36,f8,negative).
example(e36,f9,negative).
example(e36,f10,negative).
example(e36,f11,negative).
example(e36,f12,negative).
example(e36,f13,negative).
example(e36,f14,negative).
example(e36,f15,negative).
example(e36,f16,negative).
example(e36,f17,negative).
example(e36,f18,negative).
example(e36,f19,negative).
example(e36,f20,negative).
example(e36,f21,negative).
example(e36,f22,negative).
example(e36,f23,negative).
example(e36,f24,negative).
example(e36,f25,negative).
example(e36,f26,negative).
example(e36,f27,negative).
example(e36,f28,negative).
example(e36,f29,negative).
example(e36,f30,negative).
example(e36,f31,positive).
example(e36,f32,negative).
example(e36,f33,positive).
example(e36,f34,negative).
example(e37,f1,negative).
example(e37,f2,negative).
example(e37,f3,negative).
example(e37,f4,positive).
example(e37,f5,negative).
example(e37,f6,positive).
example(e37,f7,positive).
example(e37,f8,positive).
example(e37,f9,negative).
example(e37,f10,negative).
example(e37,f11,negative).
example(e37,f12,negative).
example(e37,f13,negative).
example(e37,f14,negative).
example(e37,f15,negative).
example(e37,f16,negative).
example(e37,f17,negative).
example(e37,f18,negative).
example(e37,f19,positive).
example(e37,f20,negative).
example(e37,f21,negative).
example(e37,f22,negative).
example(e37,f23,negative).
example(e37,f24,negative).
example(e37,f25,positive).
example(e37,f26,negative).
example(e37,f27,negative).
example(e37,f28,negative).
example(e37,f29,negative).
example(e37,f30,positive).
example(e37,f31,negative).
example(e37,f32,positive).
example(e37,f33,negative).
example(e37,f34,negative).
example(e38,f1,negative).
example(e38,f2,negative).
example(e38,f3,negative).
example(e38,f4,negative).
example(e38,f5,negative).
example(e38,f6,positive).
example(e38,f7,positive).
example(e38,f8,positive).
example(e38,f9,negative).
example(e38,f10,negative).
example(e38,f11,negative).
example(e38,f12,negative).
example(e38,f13,negative).
example(e38,f14,negative).
example(e38,f15,negative).
example(e38,f16,negative).
example(e38,f17,negative).
example(e38,f18,negative).
example(e38,f19,negative).
example(e38,f20,negative).
example(e38,f21,negative).
example(e38,f22,positive).
example(e38,f23,negative).
example(e38,f24,negative).
example(e38,f25,positive).
example(e38,f26,negative).
example(e38,f27,negative).
example(e38,f28,negative).
example(e38,f29,negative).
example(e38,f30,positive).
example(e38,f31,positive).
example(e38,f32,positive).
example(e38,f33,positive).
example(e38,f34,negative).
example(e39,f1,negative).
example(e39,f2,negative).
example(e39,f3,negative).
example(e39,f4,negative).
example(e39,f5,positive).
example(e39,f6,negative).
example(e39,f7,negative).
example(e39,f8,positive).
example(e39,f9,negative).
example(e39,f10,negative).
example(e39,f11,negative).
example(e39,f12,negative).
example(e39,f13,negative).
example(e39,f14,negative).
example(e39,f15,negative).
example(e39,f16,negative).
example(e39,f17,negative).
example(e39,f18,negative).
example(e39,f19,negative).
example(e39,f20,negative).
example(e39,f21,positive).
example(e39,f22,negative).
example(e39,f23,negative).
example(e39,f24,negative).
example(e39,f25,positive).
example(e39,f26,negative).
example(e39,f27,negative).
example(e39,f28,negative).
example(e39,f29,negative).
example(e39,f30,positive).
example(e39,f31,positive).
example(e39,f32,positive).
example(e39,f33,positive).
example(e39,f34,negative).
example(e40,f1,negative).
example(e40,f2,negative).
example(e40,f3,negative).
example(e40,f4,negative).
example(e40,f5,negative).
example(e40,f6,negative).
example(e40,f7,negative).
example(e40,f8,positive).
example(e40,f9,negative).
example(e40,f10,negative).
example(e40,f11,negative).
example(e40,f12,negative).
example(e40,f13,negative).
example(e40,f14,positive).
example(e40,f15,negative).
example(e40,f16,negative).
example(e40,f17,negative).
example(e40,f18,negative).
example(e40,f19,negative).
example(e40,f20,negative).
example(e40,f21,negative).
example(e40,f22,negative).
example(e40,f23,negative).
example(e40,f24,negative).
example(e40,f25,positive).
example(e40,f26,negative).
example(e40,f27,negative).
example(e40,f28,negative).
example(e40,f29,negative).
example(e40,f30,positive).
example(e40,f31,positive).
example(e40,f32,positive).
example(e40,f33,positive).
example(e40,f34,negative).
example(e41,f1,negative).
example(e41,f2,positive).
example(e41,f3,negative).
example(e41,f4,positive).
example(e41,f5,positive).
example(e41,f6,positive).
example(e41,f7,positive).
example(e41,f8,positive).
example(e41,f9,negative).
example(e41,f10,negative).
example(e41,f11,negative).
example(e41,f12,negative).
example(e41,f13,positive).
example(e41,f14,negative).
example(e41,f15,negative).
example(e41,f16,negative).
example(e41,f17,negative).
example(e41,f18,negative).
example(e41,f19,negative).
example(e41,f20,negative).
example(e41,f21,negative).
example(e41,f22,negative).
example(e41,f23,negative).
example(e41,f24,negative).
example(e41,f25,positive).
example(e41,f26,negative).
example(e41,f27,negative).
example(e41,f28,negative).
example(e41,f29,negative).
example(e41,f30,positive).
example(e41,f31,negative).
example(e41,f32,negative).
example(e41,f33,positive).
example(e41,f34,negative).
example(e42,f1,negative).
example(e42,f2,negative).
example(e42,f3,negative).
example(e42,f4,positive).
example(e42,f5,negative).
example(e42,f6,negative).
example(e42,f7,positive).
example(e42,f8,negative).
example(e42,f9,negative).
example(e42,f10,negative).
example(e42,f11,negative).
example(e42,f12,negative).
example(e42,f13,negative).
example(e42,f14,negative).
example(e42,f15,negative).
example(e42,f16,negative).
example(e42,f17,negative).
example(e42,f18,negative).
example(e42,f19,positive).
example(e42,f20,negative).
example(e42,f21,negative).
example(e42,f22,negative).
example(e42,f23,negative).
example(e42,f24,negative).
example(e42,f25,positive).
example(e42,f26,negative).
example(e42,f27,negative).
example(e42,f28,negative).
example(e42,f29,negative).
example(e42,f30,negative).
example(e42,f31,negative).
example(e42,f32,positive).
example(e42,f33,positive).
example(e42,f34,negative).
example(e43,f1,negative).
example(e43,f2,negative).
example(e43,f3,negative).
example(e43,f4,positive).
example(e43,f5,positive).
example(e43,f6,negative).
example(e43,f7,positive).
example(e43,f8,positive).
example(e43,f9,negative).
example(e43,f10,negative).
example(e43,f11,negative).
example(e43,f12,negative).
example(e43,f13,negative).
example(e43,f14,positive).
example(e43,f15,negative).
example(e43,f16,negative).
example(e43,f17,negative).
example(e43,f18,negative).
example(e43,f19,negative).
example(e43,f20,negative).
example(e43,f21,negative).
example(e43,f22,negative).
example(e43,f23,negative).
example(e43,f24,negative).
example(e43,f25,negative).
example(e43,f26,negative).
example(e43,f27,negative).
example(e43,f28,positive).
example(e43,f29,negative).
example(e43,f30,positive).
example(e43,f31,negative).
example(e43,f32,negative).
example(e43,f33,positive).
example(e43,f34,negative).
example(e44,f1,negative).
example(e44,f2,negative).
example(e44,f3,negative).
example(e44,f4,negative).
example(e44,f5,negative).
example(e44,f6,positive).
example(e44,f7,positive).
example(e44,f8,positive).
example(e44,f9,negative).
example(e44,f10,negative).
example(e44,f11,negative).
example(e44,f12,negative).
example(e44,f13,negative).
example(e44,f14,negative).
example(e44,f15,negative).
example(e44,f16,negative).
example(e44,f17,negative).
example(e44,f18,negative).
example(e44,f19,negative).
example(e44,f20,negative).
example(e44,f21,positive).
example(e44,f22,negative).
example(e44,f23,negative).
example(e44,f24,negative).
example(e44,f25,positive).
example(e44,f26,negative).
example(e44,f27,negative).
example(e44,f28,negative).
example(e44,f29,negative).
example(e44,f30,positive).
example(e44,f31,positive).
example(e44,f32,positive).
example(e44,f33,positive).
example(e44,f34,negative).
example(e45,f1,negative).
example(e45,f2,negative).
example(e45,f3,negative).
example(e45,f4,negative).
example(e45,f5,negative).
example(e45,f6,negative).
example(e45,f7,positive).
example(e45,f8,negative).
example(e45,f9,negative).
example(e45,f10,negative).
example(e45,f11,negative).
example(e45,f12,negative).
example(e45,f13,negative).
example(e45,f14,negative).
example(e45,f15,negative).
example(e45,f16,negative).
example(e45,f17,negative).
example(e45,f18,negative).
example(e45,f19,negative).
example(e45,f20,negative).
example(e45,f21,positive).
example(e45,f22,negative).
example(e45,f23,negative).
example(e45,f24,negative).
example(e45,f25,positive).
example(e45,f26,negative).
example(e45,f27,negative).
example(e45,f28,negative).
example(e45,f29,negative).
example(e45,f30,negative).
example(e45,f31,positive).
example(e45,f32,negative).
example(e45,f33,positive).
example(e45,f34,negative).
example(e46,f1,negative).
example(e46,f2,negative).
example(e46,f3,negative).
example(e46,f4,negative).
example(e46,f5,negative).
example(e46,f6,positive).
example(e46,f7,negative).
example(e46,f8,positive).
example(e46,f9,negative).
example(e46,f10,negative).
example(e46,f11,positive).
example(e46,f12,negative).
example(e46,f13,negative).
example(e46,f14,negative).
example(e46,f15,negative).
example(e46,f16,negative).
example(e46,f17,negative).
example(e46,f18,negative).
example(e46,f19,negative).
example(e46,f20,negative).
example(e46,f21,negative).
example(e46,f22,negative).
example(e46,f23,negative).
example(e46,f24,negative).
example(e46,f25,positive).
example(e46,f26,negative).
example(e46,f27,negative).
example(e46,f28,negative).
example(e46,f29,negative).
example(e46,f30,positive).
example(e46,f31,positive).
example(e46,f32,positive).
example(e46,f33,positive).
example(e46,f34,negative).
example(e47,f1,negative).
example(e47,f2,negative).
example(e47,f3,negative).
example(e47,f4,positive).
example(e47,f5,negative).
example(e47,f6,positive).
example(e47,f7,negative).
example(e47,f8,negative).
example(e47,f9,negative).
example(e47,f10,negative).
example(e47,f11,negative).
example(e47,f12,negative).
example(e47,f13,negative).
example(e47,f14,negative).
example(e47,f15,negative).
example(e47,f16,negative).
example(e47,f17,negative).
example(e47,f18,negative).
example(e47,f19,negative).
example(e47,f20,negative).
example(e47,f21,positive).
example(e47,f22,negative).
example(e47,f23,negative).
example(e47,f24,negative).
example(e47,f25,positive).
example(e47,f26,negative).
example(e47,f27,negative).
example(e47,f28,negative).
example(e47,f29,negative).
example(e47,f30,negative).
example(e47,f31,negative).
example(e47,f32,negative).
example(e47,f33,positive).
example(e47,f34,negative).
example(e48,f1,negative).
example(e48,f2,negative).
example(e48,f3,negative).
example(e48,f4,positive).
example(e48,f5,positive).
example(e48,f6,positive).
example(e48,f7,positive).
example(e48,f8,positive).
example(e48,f9,negative).
example(e48,f10,negative).
example(e48,f11,negative).
example(e48,f12,negative).
example(e48,f13,negative).
example(e48,f14,negative).
example(e48,f15,negative).
example(e48,f16,negative).
example(e48,f17,negative).
example(e48,f18,negative).
example(e48,f19,negative).
example(e48,f20,negative).
example(e48,f21,positive).
example(e48,f22,negative).
example(e48,f23,negative).
example(e48,f24,negative).
example(e48,f25,positive).
example(e48,f26,negative).
example(e48,f27,negative).
example(e48,f28,negative).
example(e48,f29,negative).
example(e48,f30,negative).
example(e48,f31,negative).
example(e48,f32,negative).
example(e48,f33,positive).
example(e48,f34,negative).
example(e49,f1,negative).
example(e49,f2,negative).
example(e49,f3,negative).
example(e49,f4,positive).
example(e49,f5,negative).
example(e49,f6,negative).
example(e49,f7,negative).
example(e49,f8,negative).
example(e49,f9,negative).
example(e49,f10,positive).
example(e49,f11,negative).
example(e49,f12,negative).
example(e49,f13,negative).
example(e49,f14,negative).
example(e49,f15,negative).
example(e49,f16,negative).
example(e49,f17,negative).
example(e49,f18,negative).
example(e49,f19,negative).
example(e49,f20,negative).
example(e49,f21,negative).
example(e49,f22,negative).
example(e49,f23,negative).
example(e49,f24,negative).
example(e49,f25,negative).
example(e49,f26,negative).
example(e49,f27,negative).
example(e49,f28,positive).
example(e49,f29,negative).
example(e49,f30,negative).
example(e49,f31,negative).
example(e49,f32,negative).
example(e49,f33,positive).
example(e49,f34,negative).
example(e50,f1,negative).
example(e50,f2,negative).
example(e50,f3,negative).
example(e50,f4,negative).
example(e50,f5,positive).
example(e50,f6,negative).
example(e50,f7,negative).
example(e50,f8,positive).
example(e50,f9,negative).
example(e50,f10,negative).
example(e50,f11,negative).
example(e50,f12,negative).
example(e50,f13,negative).
example(e50,f14,negative).
example(e50,f15,negative).
example(e50,f16,negative).
example(e50,f17,negative).
example(e50,f18,negative).
example(e50,f19,negative).
example(e50,f20,negative).
example(e50,f21,positive).
example(e50,f22,negative).
example(e50,f23,negative).
example(e50,f24,negative).
example(e50,f25,positive).
example(e50,f26,negative).
example(e50,f27,negative).
example(e50,f28,negative).
example(e50,f29,negative).
example(e50,f30,positive).
example(e50,f31,positive).
example(e50,f32,negative).
example(e50,f33,positive).
example(e50,f34,negative).
example(e51,f1,negative).
example(e51,f2,negative).
example(e51,f3,negative).
example(e51,f4,positive).
example(e51,f5,negative).
example(e51,f6,positive).
example(e51,f7,positive).
example(e51,f8,positive).
example(e51,f9,negative).
example(e51,f10,negative).
example(e51,f11,negative).
example(e51,f12,negative).
example(e51,f13,negative).
example(e51,f14,negative).
example(e51,f15,negative).
example(e51,f16,negative).
example(e51,f17,positive).
example(e51,f18,negative).
example(e51,f19,negative).
example(e51,f20,negative).
example(e51,f21,negative).
example(e51,f22,negative).
example(e51,f23,negative).
example(e51,f24,negative).
example(e51,f25,positive).
example(e51,f26,negative).
example(e51,f27,negative).
example(e51,f28,negative).
example(e51,f29,negative).
example(e51,f30,negative).
example(e51,f31,negative).
example(e51,f32,positive).
example(e51,f33,positive).
example(e51,f34,negative).
example(e52,f1,negative).
example(e52,f2,negative).
example(e52,f3,negative).
example(e52,f4,positive).
example(e52,f5,negative).
example(e52,f6,negative).
example(e52,f7,positive).
example(e52,f8,negative).
example(e52,f9,negative).
example(e52,f10,negative).
example(e52,f11,negative).
example(e52,f12,negative).
example(e52,f13,negative).
example(e52,f14,negative).
example(e52,f15,negative).
example(e52,f16,positive).
example(e52,f17,negative).
example(e52,f18,negative).
example(e52,f19,negative).
example(e52,f20,negative).
example(e52,f21,negative).
example(e52,f22,negative).
example(e52,f23,negative).
example(e52,f24,negative).
example(e52,f25,negative).
example(e52,f26,negative).
example(e52,f27,negative).
example(e52,f28,positive).
example(e52,f29,negative).
example(e52,f30,negative).
example(e52,f31,negative).
example(e52,f32,negative).
example(e52,f33,positive).
example(e52,f34,negative).
example(e53,f1,negative).
example(e53,f2,negative).
example(e53,f3,negative).
example(e53,f4,positive).
example(e53,f5,negative).
example(e53,f6,negative).
example(e53,f7,positive).
example(e53,f8,negative).
example(e53,f9,negative).
example(e53,f10,negative).
example(e53,f11,negative).
example(e53,f12,negative).
example(e53,f13,negative).
example(e53,f14,negative).
example(e53,f15,negative).
example(e53,f16,negative).
example(e53,f17,positive).
example(e53,f18,negative).
example(e53,f19,negative).
example(e53,f20,negative).
example(e53,f21,negative).
example(e53,f22,negative).
example(e53,f23,negative).
example(e53,f24,negative).
example(e53,f25,positive).
example(e53,f26,negative).
example(e53,f27,negative).
example(e53,f28,negative).
example(e53,f29,negative).
example(e53,f30,negative).
example(e53,f31,negative).
example(e53,f32,negative).
example(e53,f33,positive).
example(e53,f34,negative).
example(e54,f1,negative).
example(e54,f2,negative).
example(e54,f3,negative).
example(e54,f4,positive).
example(e54,f5,negative).
example(e54,f6,negative).
example(e54,f7,positive).
example(e54,f8,negative).
example(e54,f9,negative).
example(e54,f10,negative).
example(e54,f11,negative).
example(e54,f12,negative).
example(e54,f13,negative).
example(e54,f14,negative).
example(e54,f15,negative).
example(e54,f16,negative).
example(e54,f17,negative).
example(e54,f18,negative).
example(e54,f19,negative).
example(e54,f20,negative).
example(e54,f21,positive).
example(e54,f22,negative).
example(e54,f23,negative).
example(e54,f24,negative).
example(e54,f25,positive).
example(e54,f26,negative).
example(e54,f27,negative).
example(e54,f28,negative).
example(e54,f29,negative).
example(e54,f30,negative).
example(e54,f31,negative).
example(e54,f32,positive).
example(e54,f33,positive).
example(e54,f34,negative).
example(e55,f1,negative).
example(e55,f2,negative).
example(e55,f3,negative).
example(e55,f4,negative).
example(e55,f5,negative).
example(e55,f6,negative).
example(e55,f7,positive).
example(e55,f8,negative).
example(e55,f9,negative).
example(e55,f10,negative).
example(e55,f11,positive).
example(e55,f12,negative).
example(e55,f13,negative).
example(e55,f14,negative).
example(e55,f15,negative).
example(e55,f16,negative).
example(e55,f17,negative).
example(e55,f18,negative).
example(e55,f19,negative).
example(e55,f20,negative).
example(e55,f21,negative).
example(e55,f22,negative).
example(e55,f23,negative).
example(e55,f24,negative).
example(e55,f25,negative).
example(e55,f26,negative).
example(e55,f27,negative).
example(e55,f28,positive).
example(e55,f29,negative).
example(e55,f30,negative).
example(e55,f31,positive).
example(e55,f32,positive).
example(e55,f33,positive).
example(e55,f34,negative).
example(e56,f1,negative).
example(e56,f2,negative).
example(e56,f3,negative).
example(e56,f4,negative).
example(e56,f5,negative).
example(e56,f6,negative).
example(e56,f7,positive).
example(e56,f8,positive).
example(e56,f9,negative).
example(e56,f10,negative).
example(e56,f11,negative).
example(e56,f12,negative).
example(e56,f13,negative).
example(e56,f14,negative).
example(e56,f15,negative).
example(e56,f16,negative).
example(e56,f17,negative).
example(e56,f18,negative).
example(e56,f19,negative).
example(e56,f20,negative).
example(e56,f21,negative).
example(e56,f22,positive).
example(e56,f23,negative).
example(e56,f24,negative).
example(e56,f25,positive).
example(e56,f26,negative).
example(e56,f27,negative).
example(e56,f28,negative).
example(e56,f29,negative).
example(e56,f30,positive).
example(e56,f31,positive).
example(e56,f32,positive).
example(e56,f33,positive).
example(e56,f34,negative).
example(e57,f1,negative).
example(e57,f2,negative).
example(e57,f3,negative).
example(e57,f4,negative).
example(e57,f5,positive).
example(e57,f6,negative).
example(e57,f7,positive).
example(e57,f8,positive).
example(e57,f9,negative).
example(e57,f10,negative).
example(e57,f11,negative).
example(e57,f12,negative).
example(e57,f13,negative).
example(e57,f14,negative).
example(e57,f15,negative).
example(e57,f16,negative).
example(e57,f17,negative).
example(e57,f18,negative).
example(e57,f19,positive).
example(e57,f20,negative).
example(e57,f21,negative).
example(e57,f22,negative).
example(e57,f23,negative).
example(e57,f24,negative).
example(e57,f25,negative).
example(e57,f26,positive).
example(e57,f27,negative).
example(e57,f28,negative).
example(e57,f29,negative).
example(e57,f30,positive).
example(e57,f31,positive).
example(e57,f32,negative).
example(e57,f33,positive).
example(e57,f34,negative).
example(e58,f1,negative).
example(e58,f2,negative).
example(e58,f3,negative).
example(e58,f4,positive).
example(e58,f5,negative).
example(e58,f6,negative).
example(e58,f7,negative).
example(e58,f8,positive).
example(e58,f9,negative).
example(e58,f10,negative).
example(e58,f11,negative).
example(e58,f12,negative).
example(e58,f13,negative).
example(e58,f14,negative).
example(e58,f15,negative).
example(e58,f16,positive).
example(e58,f17,negative).
example(e58,f18,negative).
example(e58,f19,negative).
example(e58,f20,negative).
example(e58,f21,negative).
example(e58,f22,negative).
example(e58,f23,negative).
example(e58,f24,negative).
example(e58,f25,negative).
example(e58,f26,negative).
example(e58,f27,negative).
example(e58,f28,positive).
example(e58,f29,negative).
example(e58,f30,negative).
example(e58,f31,negative).
example(e58,f32,negative).
example(e58,f33,positive).
example(e58,f34,negative).
example(e59,f1,negative).
example(e59,f2,negative).
example(e59,f3,negative).
example(e59,f4,positive).
example(e59,f5,negative).
example(e59,f6,negative).
example(e59,f7,positive).
example(e59,f8,negative).
example(e59,f9,negative).
example(e59,f10,negative).
example(e59,f11,negative).
example(e59,f12,negative).
example(e59,f13,negative).
example(e59,f14,negative).
example(e59,f15,negative).
example(e59,f16,negative).
example(e59,f17,negative).
example(e59,f18,negative).
example(e59,f19,negative).
example(e59,f20,negative).
example(e59,f21,negative).
example(e59,f22,positive).
example(e59,f23,negative).
example(e59,f24,negative).
example(e59,f25,positive).
example(e59,f26,negative).
example(e59,f27,negative).
example(e59,f28,negative).
example(e59,f29,negative).
example(e59,f30,positive).
example(e59,f31,negative).
example(e59,f32,positive).
example(e59,f33,positive).
example(e59,f34,negative).
example(e60,f1,negative).
example(e60,f2,negative).
example(e60,f3,negative).
example(e60,f4,negative).
example(e60,f5,negative).
example(e60,f6,positive).
example(e60,f7,positive).
example(e60,f8,positive).
example(e60,f9,negative).
example(e60,f10,negative).
example(e60,f11,negative).
example(e60,f12,negative).
example(e60,f13,negative).
example(e60,f14,negative).
example(e60,f15,negative).
example(e60,f16,negative).
example(e60,f17,negative).
example(e60,f18,negative).
example(e60,f19,negative).
example(e60,f20,positive).
example(e60,f21,negative).
example(e60,f22,negative).
example(e60,f23,negative).
example(e60,f24,negative).
example(e60,f25,positive).
example(e60,f26,negative).
example(e60,f27,negative).
example(e60,f28,negative).
example(e60,f29,negative).
example(e60,f30,positive).
example(e60,f31,positive).
example(e60,f32,positive).
example(e60,f33,positive).
example(e60,f34,negative).
example(e61,f1,negative).
example(e61,f2,negative).
example(e61,f3,negative).
example(e61,f4,positive).
example(e61,f5,negative).
example(e61,f6,positive).
example(e61,f7,positive).
example(e61,f8,positive).
example(e61,f9,negative).
example(e61,f10,negative).
example(e61,f11,negative).
example(e61,f12,negative).
example(e61,f13,negative).
example(e61,f14,negative).
example(e61,f15,negative).
example(e61,f16,positive).
example(e61,f17,negative).
example(e61,f18,negative).
example(e61,f19,negative).
example(e61,f20,negative).
example(e61,f21,negative).
example(e61,f22,negative).
example(e61,f23,negative).
example(e61,f24,negative).
example(e61,f25,negative).
example(e61,f26,positive).
example(e61,f27,negative).
example(e61,f28,negative).
example(e61,f29,negative).
example(e61,f30,negative).
example(e61,f31,negative).
example(e61,f32,positive).
example(e61,f33,positive).
example(e61,f34,negative).
example(e62,f1,negative).
example(e62,f2,negative).
example(e62,f3,negative).
example(e62,f4,negative).
example(e62,f5,negative).
example(e62,f6,negative).
example(e62,f7,negative).
example(e62,f8,positive).
example(e62,f9,negative).
example(e62,f10,negative).
example(e62,f11,negative).
example(e62,f12,negative).
example(e62,f13,negative).
example(e62,f14,negative).
example(e62,f15,negative).
example(e62,f16,negative).
example(e62,f17,negative).
example(e62,f18,negative).
example(e62,f19,negative).
example(e62,f20,negative).
example(e62,f21,negative).
example(e62,f22,positive).
example(e62,f23,negative).
example(e62,f24,negative).
example(e62,f25,positive).
example(e62,f26,negative).
example(e62,f27,negative).
example(e62,f28,negative).
example(e62,f29,negative).
example(e62,f30,negative).
example(e62,f31,positive).
example(e62,f32,positive).
example(e62,f33,positive).
example(e62,f34,negative).
example(e63,f1,negative).
example(e63,f2,negative).
example(e63,f3,negative).
example(e63,f4,negative).
example(e63,f5,negative).
example(e63,f6,negative).
example(e63,f7,positive).
example(e63,f8,positive).
example(e63,f9,negative).
example(e63,f10,negative).
example(e63,f11,negative).
example(e63,f12,negative).
example(e63,f13,negative).
example(e63,f14,negative).
example(e63,f15,negative).
example(e63,f16,positive).
example(e63,f17,negative).
example(e63,f18,negative).
example(e63,f19,negative).
example(e63,f20,negative).
example(e63,f21,negative).
example(e63,f22,negative).
example(e63,f23,negative).
example(e63,f24,negative).
example(e63,f25,positive).
example(e63,f26,negative).
example(e63,f27,negative).
example(e63,f28,negative).
example(e63,f29,negative).
example(e63,f30,positive).
example(e63,f31,positive).
example(e63,f32,negative).
example(e63,f33,positive).
example(e63,f34,negative).
example(e64,f1,negative).
example(e64,f2,negative).
example(e64,f3,negative).
example(e64,f4,positive).
example(e64,f5,negative).
example(e64,f6,positive).
example(e64,f7,negative).
example(e64,f8,positive).
example(e64,f9,negative).
example(e64,f10,negative).
example(e64,f11,negative).
example(e64,f12,negative).
example(e64,f13,negative).
example(e64,f14,negative).
example(e64,f15,negative).
example(e64,f16,positive).
example(e64,f17,negative).
example(e64,f18,negative).
example(e64,f19,negative).
example(e64,f20,negative).
example(e64,f21,negative).
example(e64,f22,negative).
example(e64,f23,negative).
example(e64,f24,negative).
example(e64,f25,negative).
example(e64,f26,positive).
example(e64,f27,negative).
example(e64,f28,negative).
example(e64,f29,negative).
example(e64,f30,negative).
example(e64,f31,negative).
example(e64,f32,negative).
example(e64,f33,negative).
example(e64,f34,negative).
example(e65,f1,negative).
example(e65,f2,negative).
example(e65,f3,negative).
example(e65,f4,positive).
example(e65,f5,negative).
example(e65,f6,negative).
example(e65,f7,negative).
example(e65,f8,positive).
example(e65,f9,negative).
example(e65,f10,negative).
example(e65,f11,positive).
example(e65,f12,negative).
example(e65,f13,negative).
example(e65,f14,negative).
example(e65,f15,negative).
example(e65,f16,negative).
example(e65,f17,negative).
example(e65,f18,negative).
example(e65,f19,negative).
example(e65,f20,negative).
example(e65,f21,negative).
example(e65,f22,negative).
example(e65,f23,negative).
example(e65,f24,negative).
example(e65,f25,negative).
example(e65,f26,negative).
example(e65,f27,negative).
example(e65,f28,positive).
example(e65,f29,negative).
example(e65,f30,positive).
example(e65,f31,negative).
example(e65,f32,negative).
example(e65,f33,positive).
example(e65,f34,negative).
example(e66,f1,negative).
example(e66,f2,negative).
example(e66,f3,negative).
example(e66,f4,negative).
example(e66,f5,positive).
example(e66,f6,positive).
example(e66,f7,positive).
example(e66,f8,positive).
example(e66,f9,negative).
example(e66,f10,negative).
example(e66,f11,negative).
example(e66,f12,negative).
example(e66,f13,negative).
example(e66,f14,positive).
example(e66,f15,negative).
example(e66,f16,negative).
example(e66,f17,negative).
example(e66,f18,negative).
example(e66,f19,negative).
example(e66,f20,negative).
example(e66,f21,negative).
example(e66,f22,negative).
example(e66,f23,negative).
example(e66,f24,negative).
example(e66,f25,negative).
example(e66,f26,negative).
example(e66,f27,negative).
example(e66,f28,positive).
example(e66,f29,negative).
example(e66,f30,positive).
example(e66,f31,positive).
example(e66,f32,negative).
example(e66,f33,positive).
example(e66,f34,negative).
example(e67,f1,negative).
example(e67,f2,negative).
example(e67,f3,negative).
example(e67,f4,positive).
example(e67,f5,negative).
example(e67,f6,positive).
example(e67,f7,negative).
example(e67,f8,positive).
example(e67,f9,negative).
example(e67,f10,negative).
example(e67,f11,positive).
example(e67,f12,negative).
example(e67,f13,negative).
example(e67,f14,negative).
example(e67,f15,negative).
example(e67,f16,negative).
example(e67,f17,negative).
example(e67,f18,negative).
example(e67,f19,negative).
example(e67,f20,negative).
example(e67,f21,negative).
example(e67,f22,negative).
example(e67,f23,negative).
example(e67,f24,negative).
example(e67,f25,positive).
example(e67,f26,negative).
example(e67,f27,negative).
example(e67,f28,negative).
example(e67,f29,negative).
example(e67,f30,negative).
example(e67,f31,negative).
example(e67,f32,positive).
example(e67,f33,positive).
example(e67,f34,negative).
example(e68,f1,negative).
example(e68,f2,negative).
example(e68,f3,negative).
example(e68,f4,positive).
example(e68,f5,negative).
example(e68,f6,negative).
example(e68,f7,positive).
example(e68,f8,positive).
example(e68,f9,negative).
example(e68,f10,negative).
example(e68,f11,negative).
example(e68,f12,negative).
example(e68,f13,negative).
example(e68,f14,negative).
example(e68,f15,negative).
example(e68,f16,positive).
example(e68,f17,negative).
example(e68,f18,negative).
example(e68,f19,negative).
example(e68,f20,negative).
example(e68,f21,negative).
example(e68,f22,negative).
example(e68,f23,negative).
example(e68,f24,negative).
example(e68,f25,positive).
example(e68,f26,negative).
example(e68,f27,negative).
example(e68,f28,negative).
example(e68,f29,negative).
example(e68,f30,positive).
example(e68,f31,negative).
example(e68,f32,positive).
example(e68,f33,positive).
example(e68,f34,negative).
example(e69,f1,negative).
example(e69,f2,negative).
example(e69,f3,positive).
example(e69,f4,negative).
example(e69,f5,negative).
example(e69,f6,negative).
example(e69,f7,positive).
example(e69,f8,positive).
example(e69,f9,negative).
example(e69,f10,negative).
example(e69,f11,negative).
example(e69,f12,negative).
example(e69,f13,negative).
example(e69,f14,negative).
example(e69,f15,negative).
example(e69,f16,negative).
example(e69,f17,negative).
example(e69,f18,negative).
example(e69,f19,negative).
example(e69,f20,negative).
example(e69,f21,negative).
example(e69,f22,negative).
example(e69,f23,negative).
example(e69,f24,negative).
example(e69,f25,negative).
example(e69,f26,negative).
example(e69,f27,negative).
example(e69,f28,negative).
example(e69,f29,negative).
example(e69,f30,negative).
example(e69,f31,positive).
example(e69,f32,negative).
example(e69,f33,positive).
example(e69,f34,negative).
example(e70,f1,negative).
example(e70,f2,negative).
example(e70,f3,negative).
example(e70,f4,negative).
example(e70,f5,negative).
example(e70,f6,negative).
example(e70,f7,positive).
example(e70,f8,positive).
example(e70,f9,negative).
example(e70,f10,negative).
example(e70,f11,negative).
example(e70,f12,negative).
example(e70,f13,positive).
example(e70,f14,negative).
example(e70,f15,negative).
example(e70,f16,negative).
example(e70,f17,negative).
example(e70,f18,negative).
example(e70,f19,negative).
example(e70,f20,negative).
example(e70,f21,negative).
example(e70,f22,negative).
example(e70,f23,negative).
example(e70,f24,negative).
example(e70,f25,negative).
example(e70,f26,negative).
example(e70,f27,negative).
example(e70,f28,positive).
example(e70,f29,negative).
example(e70,f30,positive).
example(e70,f31,positive).
example(e70,f32,positive).
example(e70,f33,positive).
example(e70,f34,negative).
example(e71,f1,negative).
example(e71,f2,negative).
example(e71,f3,positive).
example(e71,f4,positive).
example(e71,f5,positive).
example(e71,f6,positive).
example(e71,f7,positive).
example(e71,f8,negative).
example(e71,f9,negative).
example(e71,f10,negative).
example(e71,f11,negative).
example(e71,f12,negative).
example(e71,f13,negative).
example(e71,f14,negative).
example(e71,f15,negative).
example(e71,f16,negative).
example(e71,f17,negative).
example(e71,f18,negative).
example(e71,f19,negative).
example(e71,f20,negative).
example(e71,f21,negative).
example(e71,f22,negative).
example(e71,f23,negative).
example(e71,f24,negative).
example(e71,f25,negative).
example(e71,f26,negative).
example(e71,f27,negative).
example(e71,f28,negative).
example(e71,f29,negative).
example(e71,f30,positive).
example(e71,f31,negative).
example(e71,f32,positive).
example(e71,f33,positive).
example(e71,f34,negative).
example(e72,f1,negative).
example(e72,f2,negative).
example(e72,f3,negative).
example(e72,f4,negative).
example(e72,f5,positive).
example(e72,f6,negative).
example(e72,f7,negative).
example(e72,f8,positive).
example(e72,f9,negative).
example(e72,f10,negative).
example(e72,f11,negative).
example(e72,f12,negative).
example(e72,f13,negative).
example(e72,f14,negative).
example(e72,f15,negative).
example(e72,f16,negative).
example(e72,f17,negative).
example(e72,f18,negative).
example(e72,f19,negative).
example(e72,f20,negative).
example(e72,f21,negative).
example(e72,f22,positive).
example(e72,f23,negative).
example(e72,f24,negative).
example(e72,f25,negative).
example(e72,f26,negative).
example(e72,f27,negative).
example(e72,f28,positive).
example(e72,f29,negative).
example(e72,f30,negative).
example(e72,f31,positive).
example(e72,f32,negative).
example(e72,f33,positive).
example(e72,f34,negative).
example(e73,f1,negative).
example(e73,f2,negative).
example(e73,f3,negative).
example(e73,f4,positive).
example(e73,f5,negative).
example(e73,f6,positive).
example(e73,f7,positive).
example(e73,f8,positive).
example(e73,f9,negative).
example(e73,f10,negative).
example(e73,f11,negative).
example(e73,f12,negative).
example(e73,f13,negative).
example(e73,f14,negative).
example(e73,f15,negative).
example(e73,f16,negative).
example(e73,f17,negative).
example(e73,f18,negative).
example(e73,f19,negative).
example(e73,f20,negative).
example(e73,f21,negative).
example(e73,f22,positive).
example(e73,f23,negative).
example(e73,f24,negative).
example(e73,f25,positive).
example(e73,f26,negative).
example(e73,f27,negative).
example(e73,f28,negative).
example(e73,f29,negative).
example(e73,f30,negative).
example(e73,f31,negative).
example(e73,f32,negative).
example(e73,f33,positive).
example(e73,f34,negative).
example(e74,f1,negative).
example(e74,f2,negative).
example(e74,f3,negative).
example(e74,f4,negative).
example(e74,f5,negative).
example(e74,f6,negative).
example(e74,f7,positive).
example(e74,f8,negative).
example(e74,f9,negative).
example(e74,f10,negative).
example(e74,f11,negative).
example(e74,f12,negative).
example(e74,f13,negative).
example(e74,f14,negative).
example(e74,f15,negative).
example(e74,f16,negative).
example(e74,f17,negative).
example(e74,f18,negative).
example(e74,f19,negative).
example(e74,f20,negative).
example(e74,f21,positive).
example(e74,f22,negative).
example(e74,f23,negative).
example(e74,f24,negative).
example(e74,f25,negative).
example(e74,f26,positive).
example(e74,f27,negative).
example(e74,f28,negative).
example(e74,f29,negative).
example(e74,f30,positive).
example(e74,f31,positive).
example(e74,f32,positive).
example(e74,f33,positive).
example(e74,f34,negative).
example(e75,f1,negative).
example(e75,f2,negative).
example(e75,f3,negative).
example(e75,f4,negative).
example(e75,f5,positive).
example(e75,f6,negative).
example(e75,f7,positive).
example(e75,f8,positive).
example(e75,f9,negative).
example(e75,f10,positive).
example(e75,f11,negative).
example(e75,f12,negative).
example(e75,f13,negative).
example(e75,f14,negative).
example(e75,f15,negative).
example(e75,f16,negative).
example(e75,f17,negative).
example(e75,f18,negative).
example(e75,f19,negative).
example(e75,f20,negative).
example(e75,f21,negative).
example(e75,f22,negative).
example(e75,f23,negative).
example(e75,f24,negative).
example(e75,f25,negative).
example(e75,f26,negative).
example(e75,f27,negative).
example(e75,f28,negative).
example(e75,f29,positive).
example(e75,f30,positive).
example(e75,f31,positive).
example(e75,f32,negative).
example(e75,f33,positive).
example(e75,f34,negative).
example(e76,f1,negative).
example(e76,f2,negative).
example(e76,f3,negative).
example(e76,f4,positive).
example(e76,f5,negative).
example(e76,f6,negative).
example(e76,f7,positive).
example(e76,f8,positive).
example(e76,f9,negative).
example(e76,f10,negative).
example(e76,f11,positive).
example(e76,f12,negative).
example(e76,f13,negative).
example(e76,f14,negative).
example(e76,f15,negative).
example(e76,f16,negative).
example(e76,f17,negative).
example(e76,f18,negative).
example(e76,f19,negative).
example(e76,f20,negative).
example(e76,f21,negative).
example(e76,f22,negative).
example(e76,f23,negative).
example(e76,f24,negative).
example(e76,f25,positive).
example(e76,f26,negative).
example(e76,f27,negative).
example(e76,f28,negative).
example(e76,f29,negative).
example(e76,f30,negative).
example(e76,f31,negative).
example(e76,f32,negative).
example(e76,f33,positive).
example(e76,f34,negative).
example(e77,f1,negative).
example(e77,f2,negative).
example(e77,f3,negative).
example(e77,f4,positive).
example(e77,f5,negative).
example(e77,f6,positive).
example(e77,f7,positive).
example(e77,f8,positive).
example(e77,f9,negative).
example(e77,f10,negative).
example(e77,f11,negative).
example(e77,f12,negative).
example(e77,f13,negative).
example(e77,f14,negative).
example(e77,f15,negative).
example(e77,f16,negative).
example(e77,f17,positive).
example(e77,f18,negative).
example(e77,f19,negative).
example(e77,f20,negative).
example(e77,f21,negative).
example(e77,f22,negative).
example(e77,f23,negative).
example(e77,f24,negative).
example(e77,f25,negative).
example(e77,f26,negative).
example(e77,f27,negative).
example(e77,f28,positive).
example(e77,f29,negative).
example(e77,f30,negative).
example(e77,f31,negative).
example(e77,f32,positive).
example(e77,f33,positive).
example(e77,f34,negative).
example(e78,f1,negative).
example(e78,f2,negative).
example(e78,f3,negative).
example(e78,f4,positive).
example(e78,f5,negative).
example(e78,f6,positive).
example(e78,f7,positive).
example(e78,f8,positive).
example(e78,f9,negative).
example(e78,f10,negative).
example(e78,f11,negative).
example(e78,f12,negative).
example(e78,f13,negative).
example(e78,f14,negative).
example(e78,f15,negative).
example(e78,f16,negative).
example(e78,f17,negative).
example(e78,f18,negative).
example(e78,f19,negative).
example(e78,f20,negative).
example(e78,f21,positive).
example(e78,f22,negative).
example(e78,f23,negative).
example(e78,f24,negative).
example(e78,f25,positive).
example(e78,f26,negative).
example(e78,f27,negative).
example(e78,f28,negative).
example(e78,f29,negative).
example(e78,f30,negative).
example(e78,f31,negative).
example(e78,f32,negative).
example(e78,f33,positive).
example(e78,f34,negative).
example(e79,f1,negative).
example(e79,f2,positive).
example(e79,f3,negative).
example(e79,f4,negative).
example(e79,f5,positive).
example(e79,f6,positive).
example(e79,f7,positive).
example(e79,f8,positive).
example(e79,f9,negative).
example(e79,f10,negative).
example(e79,f11,negative).
example(e79,f12,negative).
example(e79,f13,negative).
example(e79,f14,negative).
example(e79,f15,negative).
example(e79,f16,negative).
example(e79,f17,positive).
example(e79,f18,negative).
example(e79,f19,negative).
example(e79,f20,negative).
example(e79,f21,negative).
example(e79,f22,negative).
example(e79,f23,negative).
example(e79,f24,negative).
example(e79,f25,positive).
example(e79,f26,negative).
example(e79,f27,negative).
example(e79,f28,negative).
example(e79,f29,negative).
example(e79,f30,negative).
example(e79,f31,positive).
example(e79,f32,negative).
example(e79,f33,negative).
example(e79,f34,negative).
example(e80,f1,negative).
example(e80,f2,negative).
example(e80,f3,negative).
example(e80,f4,negative).
example(e80,f5,negative).
example(e80,f6,negative).
example(e80,f7,negative).
example(e80,f8,positive).
example(e80,f9,negative).
example(e80,f10,negative).
example(e80,f11,negative).
example(e80,f12,negative).
example(e80,f13,negative).
example(e80,f14,negative).
example(e80,f15,negative).
example(e80,f16,negative).
example(e80,f17,negative).
example(e80,f18,negative).
example(e80,f19,negative).
example(e80,f20,negative).
example(e80,f21,negative).
example(e80,f22,positive).
example(e80,f23,negative).
example(e80,f24,negative).
example(e80,f25,positive).
example(e80,f26,negative).
example(e80,f27,negative).
example(e80,f28,negative).
example(e80,f29,negative).
example(e80,f30,positive).
example(e80,f31,positive).
example(e80,f32,negative).
example(e80,f33,positive).
example(e80,f34,negative).
example(e81,f1,negative).
example(e81,f2,negative).
example(e81,f3,negative).
example(e81,f4,negative).
example(e81,f5,positive).
example(e81,f6,negative).
example(e81,f7,positive).
example(e81,f8,positive).
example(e81,f9,negative).
example(e81,f10,negative).
example(e81,f11,negative).
example(e81,f12,negative).
example(e81,f13,positive).
example(e81,f14,negative).
example(e81,f15,negative).
example(e81,f16,negative).
example(e81,f17,negative).
example(e81,f18,negative).
example(e81,f19,negative).
example(e81,f20,negative).
example(e81,f21,negative).
example(e81,f22,negative).
example(e81,f23,negative).
example(e81,f24,negative).
example(e81,f25,positive).
example(e81,f26,negative).
example(e81,f27,negative).
example(e81,f28,negative).
example(e81,f29,negative).
example(e81,f30,positive).
example(e81,f31,positive).
example(e81,f32,negative).
example(e81,f33,positive).
example(e81,f34,negative).
example(e82,f1,negative).
example(e82,f2,negative).
example(e82,f3,positive).
example(e82,f4,negative).
example(e82,f5,positive).
example(e82,f6,negative).
example(e82,f7,negative).
example(e82,f8,positive).
example(e82,f9,negative).
example(e82,f10,negative).
example(e82,f11,negative).
example(e82,f12,negative).
example(e82,f13,negative).
example(e82,f14,negative).
example(e82,f15,negative).
example(e82,f16,negative).
example(e82,f17,negative).
example(e82,f18,negative).
example(e82,f19,negative).
example(e82,f20,negative).
example(e82,f21,negative).
example(e82,f22,negative).
example(e82,f23,negative).
example(e82,f24,negative).
example(e82,f25,negative).
example(e82,f26,negative).
example(e82,f27,negative).
example(e82,f28,negative).
example(e82,f29,negative).
example(e82,f30,negative).
example(e82,f31,positive).
example(e82,f32,negative).
example(e82,f33,positive).
example(e82,f34,negative).
example(e83,f1,negative).
example(e83,f2,negative).
example(e83,f3,negative).
example(e83,f4,positive).
example(e83,f5,negative).
example(e83,f6,negative).
example(e83,f7,negative).
example(e83,f8,positive).
example(e83,f9,negative).
example(e83,f10,negative).
example(e83,f11,negative).
example(e83,f12,negative).
example(e83,f13,negative).
example(e83,f14,negative).
example(e83,f15,positive).
example(e83,f16,negative).
example(e83,f17,negative).
example(e83,f18,negative).
example(e83,f19,negative).
example(e83,f20,negative).
example(e83,f21,negative).
example(e83,f22,negative).
example(e83,f23,negative).
example(e83,f24,negative).
example(e83,f25,positive).
example(e83,f26,negative).
example(e83,f27,negative).
example(e83,f28,negative).
example(e83,f29,negative).
example(e83,f30,negative).
example(e83,f31,negative).
example(e83,f32,negative).
example(e83,f33,positive).
example(e83,f34,negative).
example(e84,f1,negative).
example(e84,f2,negative).
example(e84,f3,negative).
example(e84,f4,positive).
example(e84,f5,negative).
example(e84,f6,positive).
example(e84,f7,positive).
example(e84,f8,positive).
example(e84,f9,negative).
example(e84,f10,negative).
example(e84,f11,negative).
example(e84,f12,negative).
example(e84,f13,negative).
example(e84,f14,negative).
example(e84,f15,negative).
example(e84,f16,positive).
example(e84,f17,negative).
example(e84,f18,negative).
example(e84,f19,negative).
example(e84,f20,negative).
example(e84,f21,negative).
example(e84,f22,negative).
example(e84,f23,negative).
example(e84,f24,negative).
example(e84,f25,negative).
example(e84,f26,positive).
example(e84,f27,negative).
example(e84,f28,negative).
example(e84,f29,negative).
example(e84,f30,negative).
example(e84,f31,negative).
example(e84,f32,negative).
example(e84,f33,positive).
example(e84,f34,negative).
example(e85,f1,negative).
example(e85,f2,negative).
example(e85,f3,negative).
example(e85,f4,positive).
example(e85,f5,negative).
example(e85,f6,positive).
example(e85,f7,positive).
example(e85,f8,positive).
example(e85,f9,negative).
example(e85,f10,negative).
example(e85,f11,negative).
example(e85,f12,negative).
example(e85,f13,negative).
example(e85,f14,negative).
example(e85,f15,negative).
example(e85,f16,negative).
example(e85,f17,negative).
example(e85,f18,negative).
example(e85,f19,negative).
example(e85,f20,negative).
example(e85,f21,positive).
example(e85,f22,negative).
example(e85,f23,negative).
example(e85,f24,negative).
example(e85,f25,positive).
example(e85,f26,negative).
example(e85,f27,negative).
example(e85,f28,negative).
example(e85,f29,negative).
example(e85,f30,negative).
example(e85,f31,negative).
example(e85,f32,positive).
example(e85,f33,negative).
example(e85,f34,negative).
example(e86,f1,negative).
example(e86,f2,positive).
example(e86,f3,positive).
example(e86,f4,positive).
example(e86,f5,negative).
example(e86,f6,positive).
example(e86,f7,positive).
example(e86,f8,positive).
example(e86,f9,negative).
example(e86,f10,negative).
example(e86,f11,negative).
example(e86,f12,negative).
example(e86,f13,negative).
example(e86,f14,negative).
example(e86,f15,negative).
example(e86,f16,negative).
example(e86,f17,negative).
example(e86,f18,negative).
example(e86,f19,negative).
example(e86,f20,negative).
example(e86,f21,positive).
example(e86,f22,negative).
example(e86,f23,negative).
example(e86,f24,negative).
example(e86,f25,positive).
example(e86,f26,negative).
example(e86,f27,negative).
example(e86,f28,negative).
example(e86,f29,negative).
example(e86,f30,negative).
example(e86,f31,negative).
example(e86,f32,negative).
example(e86,f33,negative).
example(e86,f34,positive).
example(e87,f1,negative).
example(e87,f2,negative).
example(e87,f3,negative).
example(e87,f4,positive).
example(e87,f5,negative).
example(e87,f6,negative).
example(e87,f7,negative).
example(e87,f8,positive).
example(e87,f9,negative).
example(e87,f10,negative).
example(e87,f11,positive).
example(e87,f12,negative).
example(e87,f13,negative).
example(e87,f14,negative).
example(e87,f15,negative).
example(e87,f16,negative).
example(e87,f17,negative).
example(e87,f18,negative).
example(e87,f19,negative).
example(e87,f20,negative).
example(e87,f21,negative).
example(e87,f22,negative).
example(e87,f23,negative).
example(e87,f24,negative).
example(e87,f25,negative).
example(e87,f26,negative).
example(e87,f27,negative).
example(e87,f28,positive).
example(e87,f29,negative).
example(e87,f30,negative).
example(e87,f31,negative).
example(e87,f32,negative).
example(e87,f33,positive).
example(e87,f34,negative).
example(e88,f1,negative).
example(e88,f2,negative).
example(e88,f3,negative).
example(e88,f4,negative).
example(e88,f5,positive).
example(e88,f6,positive).
example(e88,f7,negative).
example(e88,f8,positive).
example(e88,f9,negative).
example(e88,f10,negative).
example(e88,f11,negative).
example(e88,f12,negative).
example(e88,f13,negative).
example(e88,f14,negative).
example(e88,f15,negative).
example(e88,f16,positive).
example(e88,f17,negative).
example(e88,f18,negative).
example(e88,f19,negative).
example(e88,f20,negative).
example(e88,f21,negative).
example(e88,f22,negative).
example(e88,f23,negative).
example(e88,f24,negative).
example(e88,f25,negative).
example(e88,f26,positive).
example(e88,f27,negative).
example(e88,f28,negative).
example(e88,f29,negative).
example(e88,f30,positive).
example(e88,f31,positive).
example(e88,f32,positive).
example(e88,f33,positive).
example(e88,f34,negative).
example(e89,f1,negative).
example(e89,f2,negative).
example(e89,f3,negative).
example(e89,f4,positive).
example(e89,f5,negative).
example(e89,f6,negative).
example(e89,f7,positive).
example(e89,f8,positive).
example(e89,f9,negative).
example(e89,f10,negative).
example(e89,f11,negative).
example(e89,f12,negative).
example(e89,f13,negative).
example(e89,f14,negative).
example(e89,f15,negative).
example(e89,f16,negative).
example(e89,f17,negative).
example(e89,f18,negative).
example(e89,f19,negative).
example(e89,f20,negative).
example(e89,f21,negative).
example(e89,f22,positive).
example(e89,f23,negative).
example(e89,f24,negative).
example(e89,f25,positive).
example(e89,f26,negative).
example(e89,f27,negative).
example(e89,f28,negative).
example(e89,f29,negative).
example(e89,f30,negative).
example(e89,f31,negative).
example(e89,f32,positive).
example(e89,f33,positive).
example(e89,f34,negative).
example(e90,f1,negative).
example(e90,f2,negative).
example(e90,f3,positive).
example(e90,f4,positive).
example(e90,f5,negative).
example(e90,f6,positive).
example(e90,f7,positive).
example(e90,f8,negative).
example(e90,f9,negative).
example(e90,f10,negative).
example(e90,f11,negative).
example(e90,f12,negative).
example(e90,f13,negative).
example(e90,f14,negative).
example(e90,f15,negative).
example(e90,f16,negative).
example(e90,f17,negative).
example(e90,f18,negative).
example(e90,f19,negative).
example(e90,f20,negative).
example(e90,f21,negative).
example(e90,f22,negative).
example(e90,f23,negative).
example(e90,f24,negative).
example(e90,f25,negative).
example(e90,f26,negative).
example(e90,f27,negative).
example(e90,f28,negative).
example(e90,f29,negative).
example(e90,f30,negative).
example(e90,f31,negative).
example(e90,f32,negative).
example(e90,f33,positive).
example(e90,f34,negative).
example(e91,f1,negative).
example(e91,f2,negative).
example(e91,f3,negative).
example(e91,f4,positive).
example(e91,f5,negative).
example(e91,f6,positive).
example(e91,f7,positive).
example(e91,f8,positive).
example(e91,f9,negative).
example(e91,f10,negative).
example(e91,f11,negative).
example(e91,f12,negative).
example(e91,f13,negative).
example(e91,f14,negative).
example(e91,f15,negative).
example(e91,f16,negative).
example(e91,f17,positive).
example(e91,f18,negative).
example(e91,f19,negative).
example(e91,f20,negative).
example(e91,f21,negative).
example(e91,f22,negative).
example(e91,f23,negative).
example(e91,f24,negative).
example(e91,f25,negative).
example(e91,f26,negative).
example(e91,f27,negative).
example(e91,f28,positive).
example(e91,f29,negative).
example(e91,f30,negative).
example(e91,f31,negative).
example(e91,f32,positive).
example(e91,f33,negative).
example(e91,f34,negative).
example(e92,f1,negative).
example(e92,f2,negative).
example(e92,f3,negative).
example(e92,f4,positive).
example(e92,f5,negative).
example(e92,f6,negative).
example(e92,f7,positive).
example(e92,f8,positive).
example(e92,f9,negative).
example(e92,f10,negative).
example(e92,f11,negative).
example(e92,f12,negative).
example(e92,f13,negative).
example(e92,f14,negative).
example(e92,f15,negative).
example(e92,f16,negative).
example(e92,f17,negative).
example(e92,f18,negative).
example(e92,f19,positive).
example(e92,f20,negative).
example(e92,f21,negative).
example(e92,f22,negative).
example(e92,f23,negative).
example(e92,f24,negative).
example(e92,f25,positive).
example(e92,f26,negative).
example(e92,f27,negative).
example(e92,f28,negative).
example(e92,f29,negative).
example(e92,f30,negative).
example(e92,f31,negative).
example(e92,f32,negative).
example(e92,f33,positive).
example(e92,f34,negative).
example(e93,f1,negative).
example(e93,f2,negative).
example(e93,f3,negative).
example(e93,f4,positive).
example(e93,f5,positive).
example(e93,f6,negative).
example(e93,f7,positive).
example(e93,f8,positive).
example(e93,f9,negative).
example(e93,f10,negative).
example(e93,f11,negative).
example(e93,f12,negative).
example(e93,f13,negative).
example(e93,f14,negative).
example(e93,f15,positive).
example(e93,f16,negative).
example(e93,f17,negative).
example(e93,f18,negative).
example(e93,f19,negative).
example(e93,f20,negative).
example(e93,f21,negative).
example(e93,f22,negative).
example(e93,f23,negative).
example(e93,f24,negative).
example(e93,f25,positive).
example(e93,f26,negative).
example(e93,f27,negative).
example(e93,f28,negative).
example(e93,f29,negative).
example(e93,f30,negative).
example(e93,f31,negative).
example(e93,f32,negative).
example(e93,f33,positive).
example(e93,f34,negative).
example(e94,f1,negative).
example(e94,f2,negative).
example(e94,f3,negative).
example(e94,f4,negative).
example(e94,f5,positive).
example(e94,f6,negative).
example(e94,f7,positive).
example(e94,f8,positive).
example(e94,f9,negative).
example(e94,f10,negative).
example(e94,f11,negative).
example(e94,f12,negative).
example(e94,f13,negative).
example(e94,f14,negative).
example(e94,f15,negative).
example(e94,f16,negative).
example(e94,f17,negative).
example(e94,f18,negative).
example(e94,f19,negative).
example(e94,f20,negative).
example(e94,f21,positive).
example(e94,f22,negative).
example(e94,f23,negative).
example(e94,f24,negative).
example(e94,f25,negative).
example(e94,f26,positive).
example(e94,f27,negative).
example(e94,f28,negative).
example(e94,f29,negative).
example(e94,f30,positive).
example(e94,f31,positive).
example(e94,f32,negative).
example(e94,f33,positive).
example(e94,f34,negative).
example(e95,f1,negative).
example(e95,f2,negative).
example(e95,f3,negative).
example(e95,f4,positive).
example(e95,f5,negative).
example(e95,f6,positive).
example(e95,f7,negative).
example(e95,f8,negative).
example(e95,f9,negative).
example(e95,f10,negative).
example(e95,f11,positive).
example(e95,f12,negative).
example(e95,f13,negative).
example(e95,f14,negative).
example(e95,f15,negative).
example(e95,f16,negative).
example(e95,f17,negative).
example(e95,f18,negative).
example(e95,f19,negative).
example(e95,f20,negative).
example(e95,f21,negative).
example(e95,f22,negative).
example(e95,f23,negative).
example(e95,f24,negative).
example(e95,f25,negative).
example(e95,f26,negative).
example(e95,f27,negative).
example(e95,f28,positive).
example(e95,f29,negative).
example(e95,f30,negative).
example(e95,f31,negative).
example(e95,f32,negative).
example(e95,f33,positive).
example(e95,f34,negative).
example(e96,f1,negative).
example(e96,f2,negative).
example(e96,f3,negative).
example(e96,f4,positive).
example(e96,f5,negative).
example(e96,f6,negative).
example(e96,f7,positive).
example(e96,f8,positive).
example(e96,f9,negative).
example(e96,f10,negative).
example(e96,f11,negative).
example(e96,f12,negative).
example(e96,f13,negative).
example(e96,f14,negative).
example(e96,f15,negative).
example(e96,f16,negative).
example(e96,f17,negative).
example(e96,f18,negative).
example(e96,f19,negative).
example(e96,f20,negative).
example(e96,f21,negative).
example(e96,f22,positive).
example(e96,f23,negative).
example(e96,f24,negative).
example(e96,f25,positive).
example(e96,f26,negative).
example(e96,f27,negative).
example(e96,f28,negative).
example(e96,f29,negative).
example(e96,f30,negative).
example(e96,f31,negative).
example(e96,f32,negative).
example(e96,f33,positive).
example(e96,f34,negative).
example(e97,f1,negative).
example(e97,f2,negative).
example(e97,f3,negative).
example(e97,f4,positive).
example(e97,f5,positive).
example(e97,f6,negative).
example(e97,f7,negative).
example(e97,f8,positive).
example(e97,f9,negative).
example(e97,f10,negative).
example(e97,f11,negative).
example(e97,f12,negative).
example(e97,f13,negative).
example(e97,f14,negative).
example(e97,f15,negative).
example(e97,f16,negative).
example(e97,f17,negative).
example(e97,f18,negative).
example(e97,f19,positive).
example(e97,f20,negative).
example(e97,f21,negative).
example(e97,f22,negative).
example(e97,f23,negative).
example(e97,f24,negative).
example(e97,f25,positive).
example(e97,f26,negative).
example(e97,f27,negative).
example(e97,f28,negative).
example(e97,f29,negative).
example(e97,f30,negative).
example(e97,f31,negative).
example(e97,f32,negative).
example(e97,f33,positive).
example(e97,f34,negative).
example(e98,f1,negative).
example(e98,f2,negative).
example(e98,f3,negative).
example(e98,f4,positive).
example(e98,f5,positive).
example(e98,f6,positive).
example(e98,f7,positive).
example(e98,f8,negative).
example(e98,f9,negative).
example(e98,f10,negative).
example(e98,f11,negative).
example(e98,f12,negative).
example(e98,f13,negative).
example(e98,f14,negative).
example(e98,f15,negative).
example(e98,f16,negative).
example(e98,f17,negative).
example(e98,f18,negative).
example(e98,f19,negative).
example(e98,f20,positive).
example(e98,f21,negative).
example(e98,f22,negative).
example(e98,f23,negative).
example(e98,f24,negative).
example(e98,f25,positive).
example(e98,f26,negative).
example(e98,f27,negative).
example(e98,f28,negative).
example(e98,f29,negative).
example(e98,f30,negative).
example(e98,f31,negative).
example(e98,f32,negative).
example(e98,f33,positive).
example(e98,f34,negative).
example(e99,f1,negative).
example(e99,f2,negative).
example(e99,f3,negative).
example(e99,f4,negative).
example(e99,f5,positive).
example(e99,f6,negative).
example(e99,f7,negative).
example(e99,f8,positive).
example(e99,f9,negative).
example(e99,f10,negative).
example(e99,f11,negative).
example(e99,f12,negative).
example(e99,f13,negative).
example(e99,f14,negative).
example(e99,f15,negative).
example(e99,f16,negative).
example(e99,f17,negative).
example(e99,f18,negative).
example(e99,f19,positive).
example(e99,f20,negative).
example(e99,f21,negative).
example(e99,f22,negative).
example(e99,f23,negative).
example(e99,f24,negative).
example(e99,f25,positive).
example(e99,f26,negative).
example(e99,f27,negative).
example(e99,f28,negative).
example(e99,f29,negative).
example(e99,f30,negative).
example(e99,f31,positive).
example(e99,f32,positive).
example(e99,f33,positive).
example(e99,f34,negative).
example(e100,f1,negative).
example(e100,f2,negative).
example(e100,f3,negative).
example(e100,f4,negative).
example(e100,f5,positive).
example(e100,f6,positive).
example(e100,f7,negative).
example(e100,f8,positive).
example(e100,f9,negative).
example(e100,f10,negative).
example(e100,f11,positive).
example(e100,f12,negative).
example(e100,f13,negative).
example(e100,f14,negative).
example(e100,f15,negative).
example(e100,f16,negative).
example(e100,f17,negative).
example(e100,f18,negative).
example(e100,f19,negative).
example(e100,f20,negative).
example(e100,f21,negative).
example(e100,f22,negative).
example(e100,f23,negative).
example(e100,f24,negative).
example(e100,f25,positive).
example(e100,f26,negative).
example(e100,f27,negative).
example(e100,f28,negative).
example(e100,f29,negative).
example(e100,f30,positive).
example(e100,f31,positive).
example(e100,f32,negative).
example(e100,f33,positive).
example(e100,f34,negative).
example(e101,f1,negative).
example(e101,f2,negative).
example(e101,f3,negative).
example(e101,f4,positive).
example(e101,f5,negative).
example(e101,f6,positive).
example(e101,f7,negative).
example(e101,f8,positive).
example(e101,f9,negative).
example(e101,f10,negative).
example(e101,f11,negative).
example(e101,f12,negative).
example(e101,f13,negative).
example(e101,f14,negative).
example(e101,f15,negative).
example(e101,f16,negative).
example(e101,f17,negative).
example(e101,f18,negative).
example(e101,f19,negative).
example(e101,f20,negative).
example(e101,f21,positive).
example(e101,f22,negative).
example(e101,f23,negative).
example(e101,f24,negative).
example(e101,f25,positive).
example(e101,f26,negative).
example(e101,f27,negative).
example(e101,f28,negative).
example(e101,f29,negative).
example(e101,f30,negative).
example(e101,f31,negative).
example(e101,f32,negative).
example(e101,f33,positive).
example(e101,f34,negative).
example(e102,f1,negative).
example(e102,f2,negative).
example(e102,f3,negative).
example(e102,f4,positive).
example(e102,f5,negative).
example(e102,f6,positive).
example(e102,f7,positive).
example(e102,f8,positive).
example(e102,f9,negative).
example(e102,f10,negative).
example(e102,f11,negative).
example(e102,f12,negative).
example(e102,f13,negative).
example(e102,f14,negative).
example(e102,f15,negative).
example(e102,f16,negative).
example(e102,f17,positive).
example(e102,f18,negative).
example(e102,f19,negative).
example(e102,f20,negative).
example(e102,f21,negative).
example(e102,f22,negative).
example(e102,f23,negative).
example(e102,f24,negative).
example(e102,f25,positive).
example(e102,f26,negative).
example(e102,f27,negative).
example(e102,f28,negative).
example(e102,f29,negative).
example(e102,f30,positive).
example(e102,f31,negative).
example(e102,f32,positive).
example(e102,f33,positive).
example(e102,f34,negative).
example(e103,f1,negative).
example(e103,f2,negative).
example(e103,f3,negative).
example(e103,f4,positive).
example(e103,f5,negative).
example(e103,f6,negative).
example(e103,f7,positive).
example(e103,f8,positive).
example(e103,f9,negative).
example(e103,f10,negative).
example(e103,f11,negative).
example(e103,f12,negative).
example(e103,f13,negative).
example(e103,f14,negative).
example(e103,f15,negative).
example(e103,f16,negative).
example(e103,f17,negative).
example(e103,f18,negative).
example(e103,f19,negative).
example(e103,f20,negative).
example(e103,f21,negative).
example(e103,f22,positive).
example(e103,f23,negative).
example(e103,f24,negative).
example(e103,f25,positive).
example(e103,f26,negative).
example(e103,f27,negative).
example(e103,f28,negative).
example(e103,f29,negative).
example(e103,f30,positive).
example(e103,f31,negative).
example(e103,f32,positive).
example(e103,f33,positive).
example(e103,f34,negative).
example(e104,f1,negative).
example(e104,f2,negative).
example(e104,f3,negative).
example(e104,f4,negative).
example(e104,f5,negative).
example(e104,f6,negative).
example(e104,f7,positive).
example(e104,f8,negative).
example(e104,f9,negative).
example(e104,f10,negative).
example(e104,f11,negative).
example(e104,f12,negative).
example(e104,f13,positive).
example(e104,f14,negative).
example(e104,f15,negative).
example(e104,f16,negative).
example(e104,f17,negative).
example(e104,f18,negative).
example(e104,f19,negative).
example(e104,f20,negative).
example(e104,f21,negative).
example(e104,f22,negative).
example(e104,f23,negative).
example(e104,f24,negative).
example(e104,f25,positive).
example(e104,f26,negative).
example(e104,f27,negative).
example(e104,f28,negative).
example(e104,f29,negative).
example(e104,f30,positive).
example(e104,f31,positive).
example(e104,f32,negative).
example(e104,f33,positive).
example(e104,f34,negative).
example(e105,f1,negative).
example(e105,f2,positive).
example(e105,f3,positive).
example(e105,f4,negative).
example(e105,f5,negative).
example(e105,f6,negative).
example(e105,f7,positive).
example(e105,f8,negative).
example(e105,f9,negative).
example(e105,f10,negative).
example(e105,f11,negative).
example(e105,f12,negative).
example(e105,f13,negative).
example(e105,f14,negative).
example(e105,f15,negative).
example(e105,f16,negative).
example(e105,f17,negative).
example(e105,f18,negative).
example(e105,f19,negative).
example(e105,f20,negative).
example(e105,f21,negative).
example(e105,f22,negative).
example(e105,f23,negative).
example(e105,f24,negative).
example(e105,f25,negative).
example(e105,f26,negative).
example(e105,f27,negative).
example(e105,f28,negative).
example(e105,f29,negative).
example(e105,f30,negative).
example(e105,f31,positive).
example(e105,f32,negative).
example(e105,f33,positive).
example(e105,f34,negative).
example(e106,f1,negative).
example(e106,f2,negative).
example(e106,f3,negative).
example(e106,f4,positive).
example(e106,f5,negative).
example(e106,f6,negative).
example(e106,f7,negative).
example(e106,f8,positive).
example(e106,f9,negative).
example(e106,f10,negative).
example(e106,f11,negative).
example(e106,f12,negative).
example(e106,f13,negative).
example(e106,f14,positive).
example(e106,f15,negative).
example(e106,f16,negative).
example(e106,f17,negative).
example(e106,f18,negative).
example(e106,f19,negative).
example(e106,f20,negative).
example(e106,f21,negative).
example(e106,f22,negative).
example(e106,f23,negative).
example(e106,f24,negative).
example(e106,f25,negative).
example(e106,f26,negative).
example(e106,f27,negative).
example(e106,f28,positive).
example(e106,f29,negative).
example(e106,f30,positive).
example(e106,f31,negative).
example(e106,f32,positive).
example(e106,f33,positive).
example(e106,f34,negative).
example(e107,f1,negative).
example(e107,f2,negative).
example(e107,f3,negative).
example(e107,f4,negative).
example(e107,f5,negative).
example(e107,f6,negative).
example(e107,f7,positive).
example(e107,f8,positive).
example(e107,f9,negative).
example(e107,f10,negative).
example(e107,f11,negative).
example(e107,f12,negative).
example(e107,f13,negative).
example(e107,f14,positive).
example(e107,f15,negative).
example(e107,f16,negative).
example(e107,f17,negative).
example(e107,f18,negative).
example(e107,f19,negative).
example(e107,f20,negative).
example(e107,f21,negative).
example(e107,f22,negative).
example(e107,f23,negative).
example(e107,f24,negative).
example(e107,f25,negative).
example(e107,f26,negative).
example(e107,f27,negative).
example(e107,f28,positive).
example(e107,f29,negative).
example(e107,f30,positive).
example(e107,f31,positive).
example(e107,f32,negative).
example(e107,f33,positive).
example(e107,f34,negative).
example(e108,f1,negative).
example(e108,f2,negative).
example(e108,f3,negative).
example(e108,f4,positive).
example(e108,f5,positive).
example(e108,f6,positive).
example(e108,f7,positive).
example(e108,f8,positive).
example(e108,f9,negative).
example(e108,f10,negative).
example(e108,f11,negative).
example(e108,f12,negative).
example(e108,f13,negative).
example(e108,f14,negative).
example(e108,f15,negative).
example(e108,f16,negative).
example(e108,f17,negative).
example(e108,f18,negative).
example(e108,f19,positive).
example(e108,f20,negative).
example(e108,f21,negative).
example(e108,f22,negative).
example(e108,f23,negative).
example(e108,f24,negative).
example(e108,f25,positive).
example(e108,f26,negative).
example(e108,f27,negative).
example(e108,f28,negative).
example(e108,f29,negative).
example(e108,f30,negative).
example(e108,f31,negative).
example(e108,f32,negative).
example(e108,f33,positive).
example(e108,f34,negative).
example(e109,f1,negative).
example(e109,f2,negative).
example(e109,f3,negative).
example(e109,f4,positive).
example(e109,f5,positive).
example(e109,f6,positive).
example(e109,f7,negative).
example(e109,f8,positive).
example(e109,f9,negative).
example(e109,f10,negative).
example(e109,f11,negative).
example(e109,f12,negative).
example(e109,f13,negative).
example(e109,f14,negative).
example(e109,f15,negative).
example(e109,f16,negative).
example(e109,f17,positive).
example(e109,f18,negative).
example(e109,f19,negative).
example(e109,f20,negative).
example(e109,f21,negative).
example(e109,f22,negative).
example(e109,f23,negative).
example(e109,f24,negative).
example(e109,f25,negative).
example(e109,f26,negative).
example(e109,f27,negative).
example(e109,f28,positive).
example(e109,f29,negative).
example(e109,f30,positive).
example(e109,f31,negative).
example(e109,f32,positive).
example(e109,f33,positive).
example(e109,f34,negative).
example(e110,f1,negative).
example(e110,f2,negative).
example(e110,f3,negative).
example(e110,f4,positive).
example(e110,f5,negative).
example(e110,f6,positive).
example(e110,f7,positive).
example(e110,f8,positive).
example(e110,f9,negative).
example(e110,f10,negative).
example(e110,f11,negative).
example(e110,f12,negative).
example(e110,f13,negative).
example(e110,f14,negative).
example(e110,f15,negative).
example(e110,f16,negative).
example(e110,f17,negative).
example(e110,f18,negative).
example(e110,f19,negative).
example(e110,f20,negative).
example(e110,f21,positive).
example(e110,f22,negative).
example(e110,f23,negative).
example(e110,f24,negative).
example(e110,f25,positive).
example(e110,f26,negative).
example(e110,f27,negative).
example(e110,f28,negative).
example(e110,f29,negative).
example(e110,f30,negative).
example(e110,f31,negative).
example(e110,f32,positive).
example(e110,f33,positive).
example(e110,f34,negative).
example(e111,f1,negative).
example(e111,f2,negative).
example(e111,f3,negative).
example(e111,f4,positive).
example(e111,f5,negative).
example(e111,f6,positive).
example(e111,f7,positive).
example(e111,f8,negative).
example(e111,f9,negative).
example(e111,f10,negative).
example(e111,f11,negative).
example(e111,f12,negative).
example(e111,f13,negative).
example(e111,f14,negative).
example(e111,f15,negative).
example(e111,f16,negative).
example(e111,f17,positive).
example(e111,f18,negative).
example(e111,f19,negative).
example(e111,f20,negative).
example(e111,f21,negative).
example(e111,f22,negative).
example(e111,f23,negative).
example(e111,f24,negative).
example(e111,f25,positive).
example(e111,f26,negative).
example(e111,f27,negative).
example(e111,f28,negative).
example(e111,f29,negative).
example(e111,f30,negative).
example(e111,f31,negative).
example(e111,f32,negative).
example(e111,f33,positive).
example(e111,f34,negative).
example(e112,f1,negative).
example(e112,f2,negative).
example(e112,f3,negative).
example(e112,f4,positive).
example(e112,f5,positive).
example(e112,f6,negative).
example(e112,f7,positive).
example(e112,f8,positive).
example(e112,f9,negative).
example(e112,f10,negative).
example(e112,f11,negative).
example(e112,f12,negative).
example(e112,f13,negative).
example(e112,f14,negative).
example(e112,f15,negative).
example(e112,f16,negative).
example(e112,f17,negative).
example(e112,f18,negative).
example(e112,f19,negative).
example(e112,f20,negative).
example(e112,f21,positive).
example(e112,f22,negative).
example(e112,f23,negative).
example(e112,f24,negative).
example(e112,f25,positive).
example(e112,f26,negative).
example(e112,f27,negative).
example(e112,f28,negative).
example(e112,f29,negative).
example(e112,f30,negative).
example(e112,f31,negative).
example(e112,f32,positive).
example(e112,f33,positive).
example(e112,f34,negative).
example(e113,f1,negative).
example(e113,f2,negative).
example(e113,f3,negative).
example(e113,f4,negative).
example(e113,f5,negative).
example(e113,f6,positive).
example(e113,f7,positive).
example(e113,f8,negative).
example(e113,f9,negative).
example(e113,f10,negative).
example(e113,f11,negative).
example(e113,f12,negative).
example(e113,f13,negative).
example(e113,f14,negative).
example(e113,f15,negative).
example(e113,f16,positive).
example(e113,f17,negative).
example(e113,f18,negative).
example(e113,f19,negative).
example(e113,f20,negative).
example(e113,f21,negative).
example(e113,f22,negative).
example(e113,f23,negative).
example(e113,f24,negative).
example(e113,f25,negative).
example(e113,f26,negative).
example(e113,f27,negative).
example(e113,f28,positive).
example(e113,f29,negative).
example(e113,f30,positive).
example(e113,f31,positive).
example(e113,f32,positive).
example(e113,f33,positive).
example(e113,f34,negative).
example(e114,f1,negative).
example(e114,f2,negative).
example(e114,f3,negative).
example(e114,f4,negative).
example(e114,f5,positive).
example(e114,f6,negative).
example(e114,f7,negative).
example(e114,f8,positive).
example(e114,f9,negative).
example(e114,f10,negative).
example(e114,f11,negative).
example(e114,f12,negative).
example(e114,f13,negative).
example(e114,f14,negative).
example(e114,f15,negative).
example(e114,f16,negative).
example(e114,f17,negative).
example(e114,f18,negative).
example(e114,f19,positive).
example(e114,f20,negative).
example(e114,f21,negative).
example(e114,f22,negative).
example(e114,f23,negative).
example(e114,f24,negative).
example(e114,f25,positive).
example(e114,f26,negative).
example(e114,f27,negative).
example(e114,f28,negative).
example(e114,f29,negative).
example(e114,f30,positive).
example(e114,f31,positive).
example(e114,f32,negative).
example(e114,f33,positive).
example(e114,f34,negative).
example(e115,f1,negative).
example(e115,f2,negative).
example(e115,f3,negative).
example(e115,f4,positive).
example(e115,f5,negative).
example(e115,f6,positive).
example(e115,f7,positive).
example(e115,f8,positive).
example(e115,f9,negative).
example(e115,f10,negative).
example(e115,f11,negative).
example(e115,f12,negative).
example(e115,f13,negative).
example(e115,f14,negative).
example(e115,f15,negative).
example(e115,f16,positive).
example(e115,f17,negative).
example(e115,f18,negative).
example(e115,f19,negative).
example(e115,f20,negative).
example(e115,f21,negative).
example(e115,f22,negative).
example(e115,f23,negative).
example(e115,f24,negative).
example(e115,f25,negative).
example(e115,f26,positive).
example(e115,f27,negative).
example(e115,f28,negative).
example(e115,f29,negative).
example(e115,f30,negative).
example(e115,f31,negative).
example(e115,f32,positive).
example(e115,f33,negative).
example(e115,f34,negative).
example(e116,f1,negative).
example(e116,f2,negative).
example(e116,f3,negative).
example(e116,f4,negative).
example(e116,f5,negative).
example(e116,f6,negative).
example(e116,f7,positive).
example(e116,f8,negative).
example(e116,f9,negative).
example(e116,f10,negative).
example(e116,f11,negative).
example(e116,f12,negative).
example(e116,f13,negative).
example(e116,f14,negative).
example(e116,f15,negative).
example(e116,f16,negative).
example(e116,f17,negative).
example(e116,f18,negative).
example(e116,f19,negative).
example(e116,f20,positive).
example(e116,f21,negative).
example(e116,f22,negative).
example(e116,f23,negative).
example(e116,f24,negative).
example(e116,f25,negative).
example(e116,f26,positive).
example(e116,f27,negative).
example(e116,f28,negative).
example(e116,f29,negative).
example(e116,f30,positive).
example(e116,f31,positive).
example(e116,f32,positive).
example(e116,f33,positive).
example(e116,f34,negative).
example(e117,f1,negative).
example(e117,f2,negative).
example(e117,f3,negative).
example(e117,f4,negative).
example(e117,f5,negative).
example(e117,f6,negative).
example(e117,f7,negative).
example(e117,f8,positive).
example(e117,f9,negative).
example(e117,f10,negative).
example(e117,f11,negative).
example(e117,f12,negative).
example(e117,f13,positive).
example(e117,f14,negative).
example(e117,f15,negative).
example(e117,f16,negative).
example(e117,f17,negative).
example(e117,f18,negative).
example(e117,f19,negative).
example(e117,f20,negative).
example(e117,f21,negative).
example(e117,f22,negative).
example(e117,f23,negative).
example(e117,f24,negative).
example(e117,f25,negative).
example(e117,f26,negative).
example(e117,f27,negative).
example(e117,f28,positive).
example(e117,f29,negative).
example(e117,f30,positive).
example(e117,f31,positive).
example(e117,f32,positive).
example(e117,f33,positive).
example(e117,f34,negative).
example(e118,f1,negative).
example(e118,f2,negative).
example(e118,f3,negative).
example(e118,f4,negative).
example(e118,f5,negative).
example(e118,f6,negative).
example(e118,f7,positive).
example(e118,f8,positive).
example(e118,f9,negative).
example(e118,f10,negative).
example(e118,f11,negative).
example(e118,f12,negative).
example(e118,f13,negative).
example(e118,f14,positive).
example(e118,f15,negative).
example(e118,f16,negative).
example(e118,f17,negative).
example(e118,f18,negative).
example(e118,f19,negative).
example(e118,f20,negative).
example(e118,f21,negative).
example(e118,f22,negative).
example(e118,f23,negative).
example(e118,f24,negative).
example(e118,f25,positive).
example(e118,f26,negative).
example(e118,f27,negative).
example(e118,f28,negative).
example(e118,f29,negative).
example(e118,f30,positive).
example(e118,f31,positive).
example(e118,f32,positive).
example(e118,f33,positive).
example(e118,f34,negative).
example(e119,f1,negative).
example(e119,f2,negative).
example(e119,f3,negative).
example(e119,f4,negative).
example(e119,f5,negative).
example(e119,f6,negative).
example(e119,f7,positive).
example(e119,f8,positive).
example(e119,f9,negative).
example(e119,f10,negative).
example(e119,f11,positive).
example(e119,f12,negative).
example(e119,f13,negative).
example(e119,f14,negative).
example(e119,f15,negative).
example(e119,f16,negative).
example(e119,f17,negative).
example(e119,f18,negative).
example(e119,f19,negative).
example(e119,f20,negative).
example(e119,f21,negative).
example(e119,f22,negative).
example(e119,f23,negative).
example(e119,f24,negative).
example(e119,f25,positive).
example(e119,f26,negative).
example(e119,f27,negative).
example(e119,f28,negative).
example(e119,f29,negative).
example(e119,f30,positive).
example(e119,f31,positive).
example(e119,f32,positive).
example(e119,f33,positive).
example(e119,f34,negative).
example(e120,f1,negative).
example(e120,f2,negative).
example(e120,f3,negative).
example(e120,f4,negative).
example(e120,f5,negative).
example(e120,f6,negative).
example(e120,f7,positive).
example(e120,f8,positive).
example(e120,f9,negative).
example(e120,f10,negative).
example(e120,f11,negative).
example(e120,f12,negative).
example(e120,f13,negative).
example(e120,f14,negative).
example(e120,f15,negative).
example(e120,f16,negative).
example(e120,f17,negative).
example(e120,f18,negative).
example(e120,f19,negative).
example(e120,f20,negative).
example(e120,f21,positive).
example(e120,f22,negative).
example(e120,f23,negative).
example(e120,f24,negative).
example(e120,f25,negative).
example(e120,f26,negative).
example(e120,f27,negative).
example(e120,f28,positive).
example(e120,f29,negative).
example(e120,f30,positive).
example(e120,f31,positive).
example(e120,f32,negative).
example(e120,f33,positive).
example(e120,f34,negative).
example(e121,f1,negative).
example(e121,f2,negative).
example(e121,f3,negative).
example(e121,f4,negative).
example(e121,f5,positive).
example(e121,f6,negative).
example(e121,f7,positive).
example(e121,f8,positive).
example(e121,f9,negative).
example(e121,f10,negative).
example(e121,f11,negative).
example(e121,f12,negative).
example(e121,f13,negative).
example(e121,f14,negative).
example(e121,f15,negative).
example(e121,f16,negative).
example(e121,f17,negative).
example(e121,f18,negative).
example(e121,f19,negative).
example(e121,f20,negative).
example(e121,f21,positive).
example(e121,f22,negative).
example(e121,f23,negative).
example(e121,f24,negative).
example(e121,f25,positive).
example(e121,f26,negative).
example(e121,f27,negative).
example(e121,f28,negative).
example(e121,f29,negative).
example(e121,f30,positive).
example(e121,f31,positive).
example(e121,f32,negative).
example(e121,f33,positive).
example(e121,f34,negative).
example(e122,f1,negative).
example(e122,f2,negative).
example(e122,f3,negative).
example(e122,f4,positive).
example(e122,f5,negative).
example(e122,f6,positive).
example(e122,f7,positive).
example(e122,f8,negative).
example(e122,f9,negative).
example(e122,f10,negative).
example(e122,f11,negative).
example(e122,f12,negative).
example(e122,f13,negative).
example(e122,f14,negative).
example(e122,f15,negative).
example(e122,f16,negative).
example(e122,f17,negative).
example(e122,f18,negative).
example(e122,f19,negative).
example(e122,f20,negative).
example(e122,f21,positive).
example(e122,f22,negative).
example(e122,f23,negative).
example(e122,f24,negative).
example(e122,f25,positive).
example(e122,f26,negative).
example(e122,f27,negative).
example(e122,f28,negative).
example(e122,f29,negative).
example(e122,f30,negative).
example(e122,f31,negative).
example(e122,f32,positive).
example(e122,f33,negative).
example(e122,f34,negative).
example(e123,f1,negative).
example(e123,f2,negative).
example(e123,f3,positive).
example(e123,f4,positive).
example(e123,f5,negative).
example(e123,f6,positive).
example(e123,f7,negative).
example(e123,f8,positive).
example(e123,f9,negative).
example(e123,f10,negative).
example(e123,f11,negative).
example(e123,f12,negative).
example(e123,f13,negative).
example(e123,f14,negative).
example(e123,f15,negative).
example(e123,f16,negative).
example(e123,f17,negative).
example(e123,f18,negative).
example(e123,f19,negative).
example(e123,f20,negative).
example(e123,f21,negative).
example(e123,f22,negative).
example(e123,f23,negative).
example(e123,f24,negative).
example(e123,f25,negative).
example(e123,f26,negative).
example(e123,f27,negative).
example(e123,f28,negative).
example(e123,f29,negative).
example(e123,f30,negative).
example(e123,f31,negative).
example(e123,f32,negative).
example(e123,f33,positive).
example(e123,f34,negative).
example(e124,f1,negative).
example(e124,f2,negative).
example(e124,f3,negative).
example(e124,f4,negative).
example(e124,f5,positive).
example(e124,f6,negative).
example(e124,f7,negative).
example(e124,f8,positive).
example(e124,f9,negative).
example(e124,f10,negative).
example(e124,f11,negative).
example(e124,f12,negative).
example(e124,f13,negative).
example(e124,f14,negative).
example(e124,f15,negative).
example(e124,f16,negative).
example(e124,f17,negative).
example(e124,f18,negative).
example(e124,f19,negative).
example(e124,f20,negative).
example(e124,f21,positive).
example(e124,f22,negative).
example(e124,f23,negative).
example(e124,f24,negative).
example(e124,f25,positive).
example(e124,f26,negative).
example(e124,f27,negative).
example(e124,f28,negative).
example(e124,f29,negative).
example(e124,f30,positive).
example(e124,f31,positive).
example(e124,f32,negative).
example(e124,f33,positive).
example(e124,f34,negative).
example(e125,f1,negative).
example(e125,f2,negative).
example(e125,f3,negative).
example(e125,f4,negative).
example(e125,f5,negative).
example(e125,f6,positive).
example(e125,f7,negative).
example(e125,f8,positive).
example(e125,f9,negative).
example(e125,f10,negative).
example(e125,f11,negative).
example(e125,f12,negative).
example(e125,f13,positive).
example(e125,f14,negative).
example(e125,f15,negative).
example(e125,f16,negative).
example(e125,f17,negative).
example(e125,f18,negative).
example(e125,f19,negative).
example(e125,f20,negative).
example(e125,f21,negative).
example(e125,f22,negative).
example(e125,f23,negative).
example(e125,f24,negative).
example(e125,f25,negative).
example(e125,f26,negative).
example(e125,f27,negative).
example(e125,f28,positive).
example(e125,f29,negative).
example(e125,f30,positive).
example(e125,f31,positive).
example(e125,f32,positive).
example(e125,f33,positive).
example(e125,f34,negative).
example(e126,f1,negative).
example(e126,f2,negative).
example(e126,f3,negative).
example(e126,f4,negative).
example(e126,f5,negative).
example(e126,f6,negative).
example(e126,f7,positive).
example(e126,f8,positive).
example(e126,f9,negative).
example(e126,f10,negative).
example(e126,f11,negative).
example(e126,f12,negative).
example(e126,f13,negative).
example(e126,f14,negative).
example(e126,f15,negative).
example(e126,f16,negative).
example(e126,f17,negative).
example(e126,f18,negative).
example(e126,f19,negative).
example(e126,f20,negative).
example(e126,f21,negative).
example(e126,f22,positive).
example(e126,f23,negative).
example(e126,f24,negative).
example(e126,f25,positive).
example(e126,f26,negative).
example(e126,f27,negative).
example(e126,f28,negative).
example(e126,f29,negative).
example(e126,f30,negative).
example(e126,f31,positive).
example(e126,f32,negative).
example(e126,f33,positive).
example(e126,f34,negative).
example(e127,f1,negative).
example(e127,f2,negative).
example(e127,f3,negative).
example(e127,f4,negative).
example(e127,f5,positive).
example(e127,f6,negative).
example(e127,f7,negative).
example(e127,f8,positive).
example(e127,f9,negative).
example(e127,f10,negative).
example(e127,f11,positive).
example(e127,f12,negative).
example(e127,f13,negative).
example(e127,f14,negative).
example(e127,f15,negative).
example(e127,f16,negative).
example(e127,f17,negative).
example(e127,f18,negative).
example(e127,f19,negative).
example(e127,f20,negative).
example(e127,f21,negative).
example(e127,f22,negative).
example(e127,f23,negative).
example(e127,f24,negative).
example(e127,f25,positive).
example(e127,f26,negative).
example(e127,f27,negative).
example(e127,f28,negative).
example(e127,f29,negative).
example(e127,f30,positive).
example(e127,f31,positive).
example(e127,f32,negative).
example(e127,f33,positive).
example(e127,f34,negative).
example(e128,f1,negative).
example(e128,f2,negative).
example(e128,f3,negative).
example(e128,f4,positive).
example(e128,f5,negative).
example(e128,f6,negative).
example(e128,f7,positive).
example(e128,f8,positive).
example(e128,f9,negative).
example(e128,f10,negative).
example(e128,f11,negative).
example(e128,f12,negative).
example(e128,f13,negative).
example(e128,f14,negative).
example(e128,f15,negative).
example(e128,f16,negative).
example(e128,f17,negative).
example(e128,f18,negative).
example(e128,f19,negative).
example(e128,f20,negative).
example(e128,f21,positive).
example(e128,f22,negative).
example(e128,f23,negative).
example(e128,f24,negative).
example(e128,f25,positive).
example(e128,f26,negative).
example(e128,f27,negative).
example(e128,f28,negative).
example(e128,f29,negative).
example(e128,f30,negative).
example(e128,f31,negative).
example(e128,f32,negative).
example(e128,f33,positive).
example(e128,f34,negative).
example(e129,f1,negative).
example(e129,f2,negative).
example(e129,f3,positive).
example(e129,f4,positive).
example(e129,f5,negative).
example(e129,f6,negative).
example(e129,f7,negative).
example(e129,f8,positive).
example(e129,f9,negative).
example(e129,f10,negative).
example(e129,f11,negative).
example(e129,f12,negative).
example(e129,f13,negative).
example(e129,f14,negative).
example(e129,f15,negative).
example(e129,f16,negative).
example(e129,f17,negative).
example(e129,f18,positive).
example(e129,f19,negative).
example(e129,f20,negative).
example(e129,f21,negative).
example(e129,f22,negative).
example(e129,f23,negative).
example(e129,f24,positive).
example(e129,f25,negative).
example(e129,f26,negative).
example(e129,f27,negative).
example(e129,f28,negative).
example(e129,f29,negative).
example(e129,f30,positive).
example(e129,f31,negative).
example(e129,f32,negative).
example(e129,f33,positive).
example(e129,f34,negative).
example(e130,f1,negative).
example(e130,f2,negative).
example(e130,f3,negative).
example(e130,f4,negative).
example(e130,f5,negative).
example(e130,f6,negative).
example(e130,f7,positive).
example(e130,f8,negative).
example(e130,f9,negative).
example(e130,f10,negative).
example(e130,f11,negative).
example(e130,f12,negative).
example(e130,f13,negative).
example(e130,f14,negative).
example(e130,f15,positive).
example(e130,f16,negative).
example(e130,f17,negative).
example(e130,f18,negative).
example(e130,f19,negative).
example(e130,f20,negative).
example(e130,f21,negative).
example(e130,f22,negative).
example(e130,f23,negative).
example(e130,f24,negative).
example(e130,f25,positive).
example(e130,f26,negative).
example(e130,f27,negative).
example(e130,f28,negative).
example(e130,f29,negative).
example(e130,f30,positive).
example(e130,f31,positive).
example(e130,f32,positive).
example(e130,f33,positive).
example(e130,f34,negative).
example(e131,f1,negative).
example(e131,f2,negative).
example(e131,f3,negative).
example(e131,f4,negative).
example(e131,f5,negative).
example(e131,f6,negative).
example(e131,f7,negative).
example(e131,f8,positive).
example(e131,f9,negative).
example(e131,f10,negative).
example(e131,f11,negative).
example(e131,f12,negative).
example(e131,f13,negative).
example(e131,f14,negative).
example(e131,f15,negative).
example(e131,f16,negative).
example(e131,f17,negative).
example(e131,f18,negative).
example(e131,f19,positive).
example(e131,f20,negative).
example(e131,f21,negative).
example(e131,f22,negative).
example(e131,f23,negative).
example(e131,f24,negative).
example(e131,f25,positive).
example(e131,f26,negative).
example(e131,f27,negative).
example(e131,f28,negative).
example(e131,f29,negative).
example(e131,f30,positive).
example(e131,f31,positive).
example(e131,f32,positive).
example(e131,f33,positive).
example(e131,f34,negative).
example(e132,f1,negative).
example(e132,f2,negative).
example(e132,f3,negative).
example(e132,f4,positive).
example(e132,f5,negative).
example(e132,f6,positive).
example(e132,f7,negative).
example(e132,f8,negative).
example(e132,f9,negative).
example(e132,f10,positive).
example(e132,f11,negative).
example(e132,f12,negative).
example(e132,f13,negative).
example(e132,f14,negative).
example(e132,f15,negative).
example(e132,f16,negative).
example(e132,f17,negative).
example(e132,f18,negative).
example(e132,f19,negative).
example(e132,f20,negative).
example(e132,f21,negative).
example(e132,f22,negative).
example(e132,f23,positive).
example(e132,f24,negative).
example(e132,f25,negative).
example(e132,f26,negative).
example(e132,f27,negative).
example(e132,f28,negative).
example(e132,f29,negative).
example(e132,f30,negative).
example(e132,f31,negative).
example(e132,f32,negative).
example(e132,f33,positive).
example(e132,f34,negative).
example(e133,f1,negative).
example(e133,f2,negative).
example(e133,f3,positive).
example(e133,f4,positive).
example(e133,f5,negative).
example(e133,f6,positive).
example(e133,f7,positive).
example(e133,f8,negative).
example(e133,f9,negative).
example(e133,f10,negative).
example(e133,f11,negative).
example(e133,f12,negative).
example(e133,f13,negative).
example(e133,f14,negative).
example(e133,f15,negative).
example(e133,f16,negative).
example(e133,f17,negative).
example(e133,f18,negative).
example(e133,f19,negative).
example(e133,f20,negative).
example(e133,f21,negative).
example(e133,f22,negative).
example(e133,f23,negative).
example(e133,f24,negative).
example(e133,f25,negative).
example(e133,f26,negative).
example(e133,f27,negative).
example(e133,f28,negative).
example(e133,f29,negative).
example(e133,f30,negative).
example(e133,f31,negative).
example(e133,f32,negative).
example(e133,f33,positive).
example(e133,f34,negative).
example(e134,f1,negative).
example(e134,f2,negative).
example(e134,f3,negative).
example(e134,f4,positive).
example(e134,f5,negative).
example(e134,f6,positive).
example(e134,f7,negative).
example(e134,f8,negative).
example(e134,f9,negative).
example(e134,f10,negative).
example(e134,f11,negative).
example(e134,f12,negative).
example(e134,f13,negative).
example(e134,f14,negative).
example(e134,f15,negative).
example(e134,f16,negative).
example(e134,f17,negative).
example(e134,f18,negative).
example(e134,f19,negative).
example(e134,f20,negative).
example(e134,f21,positive).
example(e134,f22,negative).
example(e134,f23,negative).
example(e134,f24,negative).
example(e134,f25,positive).
example(e134,f26,negative).
example(e134,f27,negative).
example(e134,f28,negative).
example(e134,f29,negative).
example(e134,f30,negative).
example(e134,f31,negative).
example(e134,f32,negative).
example(e134,f33,negative).
example(e134,f34,negative).
example(e135,f1,negative).
example(e135,f2,negative).
example(e135,f3,positive).
example(e135,f4,positive).
example(e135,f5,negative).
example(e135,f6,negative).
example(e135,f7,positive).
example(e135,f8,positive).
example(e135,f9,negative).
example(e135,f10,negative).
example(e135,f11,negative).
example(e135,f12,negative).
example(e135,f13,negative).
example(e135,f14,negative).
example(e135,f15,negative).
example(e135,f16,negative).
example(e135,f17,negative).
example(e135,f18,negative).
example(e135,f19,negative).
example(e135,f20,negative).
example(e135,f21,negative).
example(e135,f22,negative).
example(e135,f23,negative).
example(e135,f24,negative).
example(e135,f25,negative).
example(e135,f26,negative).
example(e135,f27,negative).
example(e135,f28,negative).
example(e135,f29,negative).
example(e135,f30,positive).
example(e135,f31,negative).
example(e135,f32,negative).
example(e135,f33,positive).
example(e135,f34,negative).
example(e136,f1,negative).
example(e136,f2,negative).
example(e136,f3,negative).
example(e136,f4,positive).
example(e136,f5,negative).
example(e136,f6,positive).
example(e136,f7,negative).
example(e136,f8,positive).
example(e136,f9,negative).
example(e136,f10,negative).
example(e136,f11,negative).
example(e136,f12,negative).
example(e136,f13,negative).
example(e136,f14,negative).
example(e136,f15,negative).
example(e136,f16,negative).
example(e136,f17,negative).
example(e136,f18,negative).
example(e136,f19,negative).
example(e136,f20,negative).
example(e136,f21,positive).
example(e136,f22,negative).
example(e136,f23,negative).
example(e136,f24,negative).
example(e136,f25,positive).
example(e136,f26,negative).
example(e136,f27,negative).
example(e136,f28,negative).
example(e136,f29,negative).
example(e136,f30,negative).
example(e136,f31,negative).
example(e136,f32,negative).
example(e136,f33,positive).
example(e136,f34,negative).
example(e137,f1,negative).
example(e137,f2,negative).
example(e137,f3,positive).
example(e137,f4,negative).
example(e137,f5,negative).
example(e137,f6,negative).
example(e137,f7,positive).
example(e137,f8,positive).
example(e137,f9,negative).
example(e137,f10,negative).
example(e137,f11,negative).
example(e137,f12,negative).
example(e137,f13,negative).
example(e137,f14,negative).
example(e137,f15,negative).
example(e137,f16,negative).
example(e137,f17,negative).
example(e137,f18,negative).
example(e137,f19,negative).
example(e137,f20,negative).
example(e137,f21,negative).
example(e137,f22,negative).
example(e137,f23,negative).
example(e137,f24,negative).
example(e137,f25,negative).
example(e137,f26,negative).
example(e137,f27,negative).
example(e137,f28,negative).
example(e137,f29,negative).
example(e137,f30,negative).
example(e137,f31,positive).
example(e137,f32,negative).
example(e137,f33,positive).
example(e137,f34,negative).
example(e138,f1,negative).
example(e138,f2,negative).
example(e138,f3,negative).
example(e138,f4,negative).
example(e138,f5,negative).
example(e138,f6,negative).
example(e138,f7,positive).
example(e138,f8,positive).
example(e138,f9,negative).
example(e138,f10,negative).
example(e138,f11,negative).
example(e138,f12,negative).
example(e138,f13,negative).
example(e138,f14,negative).
example(e138,f15,negative).
example(e138,f16,negative).
example(e138,f17,negative).
example(e138,f18,negative).
example(e138,f19,negative).
example(e138,f20,positive).
example(e138,f21,negative).
example(e138,f22,negative).
example(e138,f23,negative).
example(e138,f24,negative).
example(e138,f25,positive).
example(e138,f26,negative).
example(e138,f27,negative).
example(e138,f28,negative).
example(e138,f29,negative).
example(e138,f30,positive).
example(e138,f31,positive).
example(e138,f32,negative).
example(e138,f33,positive).
example(e138,f34,negative).
example(e139,f1,negative).
example(e139,f2,negative).
example(e139,f3,negative).
example(e139,f4,negative).
example(e139,f5,negative).
example(e139,f6,positive).
example(e139,f7,positive).
example(e139,f8,positive).
example(e139,f9,negative).
example(e139,f10,negative).
example(e139,f11,negative).
example(e139,f12,negative).
example(e139,f13,negative).
example(e139,f14,negative).
example(e139,f15,negative).
example(e139,f16,negative).
example(e139,f17,negative).
example(e139,f18,negative).
example(e139,f19,negative).
example(e139,f20,negative).
example(e139,f21,positive).
example(e139,f22,negative).
example(e139,f23,negative).
example(e139,f24,negative).
example(e139,f25,positive).
example(e139,f26,negative).
example(e139,f27,negative).
example(e139,f28,negative).
example(e139,f29,negative).
example(e139,f30,positive).
example(e139,f31,positive).
example(e139,f32,positive).
example(e139,f33,positive).
example(e139,f34,negative).
example(e140,f1,negative).
example(e140,f2,negative).
example(e140,f3,negative).
example(e140,f4,negative).
example(e140,f5,negative).
example(e140,f6,negative).
example(e140,f7,negative).
example(e140,f8,positive).
example(e140,f9,negative).
example(e140,f10,negative).
example(e140,f11,negative).
example(e140,f12,negative).
example(e140,f13,negative).
example(e140,f14,negative).
example(e140,f15,negative).
example(e140,f16,negative).
example(e140,f17,negative).
example(e140,f18,negative).
example(e140,f19,negative).
example(e140,f20,negative).
example(e140,f21,positive).
example(e140,f22,negative).
example(e140,f23,negative).
example(e140,f24,negative).
example(e140,f25,positive).
example(e140,f26,negative).
example(e140,f27,negative).
example(e140,f28,negative).
example(e140,f29,negative).
example(e140,f30,positive).
example(e140,f31,positive).
example(e140,f32,positive).
example(e140,f33,positive).
example(e140,f34,negative).
example(e141,f1,negative).
example(e141,f2,negative).
example(e141,f3,negative).
example(e141,f4,positive).
example(e141,f5,negative).
example(e141,f6,positive).
example(e141,f7,positive).
example(e141,f8,negative).
example(e141,f9,negative).
example(e141,f10,negative).
example(e141,f11,negative).
example(e141,f12,negative).
example(e141,f13,negative).
example(e141,f14,negative).
example(e141,f15,negative).
example(e141,f16,negative).
example(e141,f17,positive).
example(e141,f18,negative).
example(e141,f19,negative).
example(e141,f20,negative).
example(e141,f21,negative).
example(e141,f22,negative).
example(e141,f23,negative).
example(e141,f24,negative).
example(e141,f25,negative).
example(e141,f26,negative).
example(e141,f27,negative).
example(e141,f28,positive).
example(e141,f29,negative).
example(e141,f30,positive).
example(e141,f31,negative).
example(e141,f32,positive).
example(e141,f33,positive).
example(e141,f34,negative).
example(e142,f1,negative).
example(e142,f2,negative).
example(e142,f3,negative).
example(e142,f4,positive).
example(e142,f5,negative).
example(e142,f6,positive).
example(e142,f7,negative).
example(e142,f8,negative).
example(e142,f9,negative).
example(e142,f10,negative).
example(e142,f11,negative).
example(e142,f12,negative).
example(e142,f13,negative).
example(e142,f14,negative).
example(e142,f15,negative).
example(e142,f16,negative).
example(e142,f17,negative).
example(e142,f18,negative).
example(e142,f19,negative).
example(e142,f20,negative).
example(e142,f21,negative).
example(e142,f22,negative).
example(e142,f23,negative).
example(e142,f24,negative).
example(e142,f25,negative).
example(e142,f26,negative).
example(e142,f27,negative).
example(e142,f28,negative).
example(e142,f29,negative).
example(e142,f30,negative).
example(e142,f31,negative).
example(e142,f32,negative).
example(e142,f33,positive).
example(e142,f34,negative).
example(e143,f1,negative).
example(e143,f2,negative).
example(e143,f3,positive).
example(e143,f4,positive).
example(e143,f5,negative).
example(e143,f6,negative).
example(e143,f7,positive).
example(e143,f8,negative).
example(e143,f9,negative).
example(e143,f10,negative).
example(e143,f11,negative).
example(e143,f12,negative).
example(e143,f13,negative).
example(e143,f14,negative).
example(e143,f15,negative).
example(e143,f16,negative).
example(e143,f17,negative).
example(e143,f18,negative).
example(e143,f19,negative).
example(e143,f20,negative).
example(e143,f21,negative).
example(e143,f22,negative).
example(e143,f23,negative).
example(e143,f24,negative).
example(e143,f25,negative).
example(e143,f26,negative).
example(e143,f27,negative).
example(e143,f28,negative).
example(e143,f29,negative).
example(e143,f30,negative).
example(e143,f31,negative).
example(e143,f32,positive).
example(e143,f33,positive).
example(e143,f34,negative).
example(e144,f1,negative).
example(e144,f2,negative).
example(e144,f3,negative).
example(e144,f4,negative).
example(e144,f5,positive).
example(e144,f6,negative).
example(e144,f7,positive).
example(e144,f8,positive).
example(e144,f9,negative).
example(e144,f10,negative).
example(e144,f11,negative).
example(e144,f12,negative).
example(e144,f13,negative).
example(e144,f14,positive).
example(e144,f15,negative).
example(e144,f16,negative).
example(e144,f17,negative).
example(e144,f18,negative).
example(e144,f19,negative).
example(e144,f20,negative).
example(e144,f21,negative).
example(e144,f22,negative).
example(e144,f23,negative).
example(e144,f24,negative).
example(e144,f25,negative).
example(e144,f26,negative).
example(e144,f27,negative).
example(e144,f28,positive).
example(e144,f29,negative).
example(e144,f30,positive).
example(e144,f31,positive).
example(e144,f32,positive).
example(e144,f33,positive).
example(e144,f34,negative).
example(e145,f1,negative).
example(e145,f2,negative).
example(e145,f3,negative).
example(e145,f4,negative).
example(e145,f5,negative).
example(e145,f6,negative).
example(e145,f7,negative).
example(e145,f8,positive).
example(e145,f9,negative).
example(e145,f10,negative).
example(e145,f11,positive).
example(e145,f12,negative).
example(e145,f13,negative).
example(e145,f14,negative).
example(e145,f15,negative).
example(e145,f16,negative).
example(e145,f17,negative).
example(e145,f18,negative).
example(e145,f19,negative).
example(e145,f20,negative).
example(e145,f21,negative).
example(e145,f22,negative).
example(e145,f23,negative).
example(e145,f24,negative).
example(e145,f25,positive).
example(e145,f26,negative).
example(e145,f27,negative).
example(e145,f28,negative).
example(e145,f29,negative).
example(e145,f30,negative).
example(e145,f31,positive).
example(e145,f32,negative).
example(e145,f33,positive).
example(e145,f34,negative).
example(e146,f1,negative).
example(e146,f2,negative).
example(e146,f3,positive).
example(e146,f4,negative).
example(e146,f5,positive).
example(e146,f6,negative).
example(e146,f7,negative).
example(e146,f8,positive).
example(e146,f9,negative).
example(e146,f10,positive).
example(e146,f11,negative).
example(e146,f12,negative).
example(e146,f13,negative).
example(e146,f14,negative).
example(e146,f15,negative).
example(e146,f16,negative).
example(e146,f17,negative).
example(e146,f18,negative).
example(e146,f19,negative).
example(e146,f20,negative).
example(e146,f21,negative).
example(e146,f22,negative).
example(e146,f23,negative).
example(e146,f24,negative).
example(e146,f25,negative).
example(e146,f26,negative).
example(e146,f27,negative).
example(e146,f28,negative).
example(e146,f29,positive).
example(e146,f30,positive).
example(e146,f31,positive).
example(e146,f32,negative).
example(e146,f33,positive).
example(e146,f34,negative).
example(e147,f1,negative).
example(e147,f2,negative).
example(e147,f3,negative).
example(e147,f4,negative).
example(e147,f5,positive).
example(e147,f6,negative).
example(e147,f7,positive).
example(e147,f8,positive).
example(e147,f9,negative).
example(e147,f10,positive).
example(e147,f11,negative).
example(e147,f12,negative).
example(e147,f13,negative).
example(e147,f14,negative).
example(e147,f15,negative).
example(e147,f16,negative).
example(e147,f17,negative).
example(e147,f18,negative).
example(e147,f19,negative).
example(e147,f20,negative).
example(e147,f21,negative).
example(e147,f22,negative).
example(e147,f23,negative).
example(e147,f24,negative).
example(e147,f25,negative).
example(e147,f26,negative).
example(e147,f27,negative).
example(e147,f28,negative).
example(e147,f29,positive).
example(e147,f30,positive).
example(e147,f31,positive).
example(e147,f32,positive).
example(e147,f33,positive).
example(e147,f34,negative).
example(e148,f1,negative).
example(e148,f2,negative).
example(e148,f3,negative).
example(e148,f4,positive).
example(e148,f5,negative).
example(e148,f6,positive).
example(e148,f7,negative).
example(e148,f8,positive).
example(e148,f9,negative).
example(e148,f10,negative).
example(e148,f11,positive).
example(e148,f12,negative).
example(e148,f13,negative).
example(e148,f14,negative).
example(e148,f15,negative).
example(e148,f16,negative).
example(e148,f17,negative).
example(e148,f18,negative).
example(e148,f19,negative).
example(e148,f20,negative).
example(e148,f21,negative).
example(e148,f22,negative).
example(e148,f23,negative).
example(e148,f24,negative).
example(e148,f25,positive).
example(e148,f26,negative).
example(e148,f27,negative).
example(e148,f28,negative).
example(e148,f29,negative).
example(e148,f30,negative).
example(e148,f31,negative).
example(e148,f32,negative).
example(e148,f33,positive).
example(e148,f34,negative).
example(e149,f1,negative).
example(e149,f2,negative).
example(e149,f3,negative).
example(e149,f4,positive).
example(e149,f5,negative).
example(e149,f6,positive).
example(e149,f7,positive).
example(e149,f8,positive).
example(e149,f9,negative).
example(e149,f10,negative).
example(e149,f11,negative).
example(e149,f12,negative).
example(e149,f13,negative).
example(e149,f14,negative).
example(e149,f15,positive).
example(e149,f16,negative).
example(e149,f17,negative).
example(e149,f18,negative).
example(e149,f19,negative).
example(e149,f20,negative).
example(e149,f21,negative).
example(e149,f22,negative).
example(e149,f23,negative).
example(e149,f24,negative).
example(e149,f25,negative).
example(e149,f26,positive).
example(e149,f27,negative).
example(e149,f28,negative).
example(e149,f29,negative).
example(e149,f30,positive).
example(e149,f31,negative).
example(e149,f32,positive).
example(e149,f33,positive).
example(e149,f34,negative).
example(e150,f1,negative).
example(e150,f2,negative).
example(e150,f3,negative).
example(e150,f4,negative).
example(e150,f5,negative).
example(e150,f6,negative).
example(e150,f7,negative).
example(e150,f8,positive).
example(e150,f9,negative).
example(e150,f10,positive).
example(e150,f11,negative).
example(e150,f12,negative).
example(e150,f13,negative).
example(e150,f14,negative).
example(e150,f15,negative).
example(e150,f16,negative).
example(e150,f17,negative).
example(e150,f18,negative).
example(e150,f19,negative).
example(e150,f20,negative).
example(e150,f21,negative).
example(e150,f22,negative).
example(e150,f23,negative).
example(e150,f24,negative).
example(e150,f25,negative).
example(e150,f26,positive).
example(e150,f27,negative).
example(e150,f28,negative).
example(e150,f29,negative).
example(e150,f30,positive).
example(e150,f31,positive).
example(e150,f32,negative).
example(e150,f33,positive).
example(e150,f34,negative).
example(e151,f1,negative).
example(e151,f2,positive).
example(e151,f3,positive).
example(e151,f4,positive).
example(e151,f5,negative).
example(e151,f6,positive).
example(e151,f7,positive).
example(e151,f8,positive).
example(e151,f9,negative).
example(e151,f10,negative).
example(e151,f11,negative).
example(e151,f12,negative).
example(e151,f13,negative).
example(e151,f14,negative).
example(e151,f15,negative).
example(e151,f16,negative).
example(e151,f17,negative).
example(e151,f18,negative).
example(e151,f19,negative).
example(e151,f20,negative).
example(e151,f21,positive).
example(e151,f22,negative).
example(e151,f23,negative).
example(e151,f24,negative).
example(e151,f25,positive).
example(e151,f26,negative).
example(e151,f27,negative).
example(e151,f28,negative).
example(e151,f29,negative).
example(e151,f30,negative).
example(e151,f31,negative).
example(e151,f32,negative).
example(e151,f33,negative).
example(e151,f34,positive).
example(e152,f1,negative).
example(e152,f2,negative).
example(e152,f3,negative).
example(e152,f4,positive).
example(e152,f5,negative).
example(e152,f6,positive).
example(e152,f7,positive).
example(e152,f8,positive).
example(e152,f9,negative).
example(e152,f10,negative).
example(e152,f11,negative).
example(e152,f12,negative).
example(e152,f13,negative).
example(e152,f14,negative).
example(e152,f15,negative).
example(e152,f16,negative).
example(e152,f17,negative).
example(e152,f18,negative).
example(e152,f19,negative).
example(e152,f20,negative).
example(e152,f21,positive).
example(e152,f22,negative).
example(e152,f23,negative).
example(e152,f24,negative).
example(e152,f25,positive).
example(e152,f26,negative).
example(e152,f27,negative).
example(e152,f28,negative).
example(e152,f29,negative).
example(e152,f30,positive).
example(e152,f31,negative).
example(e152,f32,positive).
example(e152,f33,positive).
example(e152,f34,negative).
example(e153,f1,negative).
example(e153,f2,negative).
example(e153,f3,negative).
example(e153,f4,positive).
example(e153,f5,negative).
example(e153,f6,positive).
example(e153,f7,positive).
example(e153,f8,positive).
example(e153,f9,negative).
example(e153,f10,positive).
example(e153,f11,negative).
example(e153,f12,negative).
example(e153,f13,negative).
example(e153,f14,negative).
example(e153,f15,negative).
example(e153,f16,negative).
example(e153,f17,negative).
example(e153,f18,negative).
example(e153,f19,negative).
example(e153,f20,negative).
example(e153,f21,negative).
example(e153,f22,negative).
example(e153,f23,negative).
example(e153,f24,negative).
example(e153,f25,positive).
example(e153,f26,negative).
example(e153,f27,negative).
example(e153,f28,negative).
example(e153,f29,negative).
example(e153,f30,negative).
example(e153,f31,negative).
example(e153,f32,negative).
example(e153,f33,positive).
example(e153,f34,negative).
example(e154,f1,negative).
example(e154,f2,negative).
example(e154,f3,negative).
example(e154,f4,negative).
example(e154,f5,negative).
example(e154,f6,negative).
example(e154,f7,positive).
example(e154,f8,negative).
example(e154,f9,negative).
example(e154,f10,negative).
example(e154,f11,negative).
example(e154,f12,negative).
example(e154,f13,negative).
example(e154,f14,negative).
example(e154,f15,negative).
example(e154,f16,negative).
example(e154,f17,negative).
example(e154,f18,negative).
example(e154,f19,negative).
example(e154,f20,negative).
example(e154,f21,positive).
example(e154,f22,negative).
example(e154,f23,negative).
example(e154,f24,negative).
example(e154,f25,positive).
example(e154,f26,negative).
example(e154,f27,negative).
example(e154,f28,negative).
example(e154,f29,negative).
example(e154,f30,negative).
example(e154,f31,positive).
example(e154,f32,negative).
example(e154,f33,positive).
example(e154,f34,negative).
example(e155,f1,negative).
example(e155,f2,negative).
example(e155,f3,negative).
example(e155,f4,negative).
example(e155,f5,positive).
example(e155,f6,negative).
example(e155,f7,positive).
example(e155,f8,positive).
example(e155,f9,negative).
example(e155,f10,negative).
example(e155,f11,negative).
example(e155,f12,negative).
example(e155,f13,negative).
example(e155,f14,negative).
example(e155,f15,negative).
example(e155,f16,negative).
example(e155,f17,positive).
example(e155,f18,negative).
example(e155,f19,negative).
example(e155,f20,negative).
example(e155,f21,negative).
example(e155,f22,negative).
example(e155,f23,negative).
example(e155,f24,negative).
example(e155,f25,positive).
example(e155,f26,negative).
example(e155,f27,negative).
example(e155,f28,negative).
example(e155,f29,negative).
example(e155,f30,positive).
example(e155,f31,positive).
example(e155,f32,negative).
example(e155,f33,positive).
example(e155,f34,negative).
example(e156,f1,negative).
example(e156,f2,positive).
example(e156,f3,positive).
example(e156,f4,positive).
example(e156,f5,negative).
example(e156,f6,negative).
example(e156,f7,positive).
example(e156,f8,negative).
example(e156,f9,negative).
example(e156,f10,negative).
example(e156,f11,negative).
example(e156,f12,negative).
example(e156,f13,negative).
example(e156,f14,negative).
example(e156,f15,negative).
example(e156,f16,negative).
example(e156,f17,negative).
example(e156,f18,negative).
example(e156,f19,negative).
example(e156,f20,positive).
example(e156,f21,negative).
example(e156,f22,negative).
example(e156,f23,negative).
example(e156,f24,negative).
example(e156,f25,negative).
example(e156,f26,positive).
example(e156,f27,negative).
example(e156,f28,negative).
example(e156,f29,negative).
example(e156,f30,negative).
example(e156,f31,negative).
example(e156,f32,positive).
example(e156,f33,negative).
example(e156,f34,negative).
example(e157,f1,negative).
example(e157,f2,negative).
example(e157,f3,negative).
example(e157,f4,positive).
example(e157,f5,negative).
example(e157,f6,negative).
example(e157,f7,positive).
example(e157,f8,positive).
example(e157,f9,negative).
example(e157,f10,negative).
example(e157,f11,positive).
example(e157,f12,negative).
example(e157,f13,negative).
example(e157,f14,negative).
example(e157,f15,negative).
example(e157,f16,negative).
example(e157,f17,negative).
example(e157,f18,negative).
example(e157,f19,negative).
example(e157,f20,negative).
example(e157,f21,negative).
example(e157,f22,negative).
example(e157,f23,negative).
example(e157,f24,negative).
example(e157,f25,negative).
example(e157,f26,negative).
example(e157,f27,positive).
example(e157,f28,negative).
example(e157,f29,negative).
example(e157,f30,negative).
example(e157,f31,negative).
example(e157,f32,negative).
example(e157,f33,positive).
example(e157,f34,negative).
example(e158,f1,negative).
example(e158,f2,negative).
example(e158,f3,negative).
example(e158,f4,positive).
example(e158,f5,negative).
example(e158,f6,negative).
example(e158,f7,positive).
example(e158,f8,positive).
example(e158,f9,negative).
example(e158,f10,positive).
example(e158,f11,negative).
example(e158,f12,negative).
example(e158,f13,negative).
example(e158,f14,negative).
example(e158,f15,negative).
example(e158,f16,negative).
example(e158,f17,negative).
example(e158,f18,negative).
example(e158,f19,negative).
example(e158,f20,negative).
example(e158,f21,negative).
example(e158,f22,negative).
example(e158,f23,negative).
example(e158,f24,negative).
example(e158,f25,positive).
example(e158,f26,negative).
example(e158,f27,negative).
example(e158,f28,negative).
example(e158,f29,negative).
example(e158,f30,negative).
example(e158,f31,negative).
example(e158,f32,negative).
example(e158,f33,positive).
example(e158,f34,negative).
example(e159,f1,negative).
example(e159,f2,negative).
example(e159,f3,negative).
example(e159,f4,negative).
example(e159,f5,negative).
example(e159,f6,positive).
example(e159,f7,positive).
example(e159,f8,negative).
example(e159,f9,negative).
example(e159,f10,negative).
example(e159,f11,negative).
example(e159,f12,negative).
example(e159,f13,negative).
example(e159,f14,negative).
example(e159,f15,negative).
example(e159,f16,negative).
example(e159,f17,negative).
example(e159,f18,negative).
example(e159,f19,negative).
example(e159,f20,negative).
example(e159,f21,negative).
example(e159,f22,positive).
example(e159,f23,negative).
example(e159,f24,negative).
example(e159,f25,positive).
example(e159,f26,negative).
example(e159,f27,negative).
example(e159,f28,negative).
example(e159,f29,negative).
example(e159,f30,positive).
example(e159,f31,positive).
example(e159,f32,negative).
example(e159,f33,positive).
example(e159,f34,negative).
example(e160,f1,negative).
example(e160,f2,negative).
example(e160,f3,negative).
example(e160,f4,positive).
example(e160,f5,negative).
example(e160,f6,positive).
example(e160,f7,positive).
example(e160,f8,positive).
example(e160,f9,negative).
example(e160,f10,negative).
example(e160,f11,negative).
example(e160,f12,negative).
example(e160,f13,negative).
example(e160,f14,positive).
example(e160,f15,negative).
example(e160,f16,negative).
example(e160,f17,negative).
example(e160,f18,negative).
example(e160,f19,negative).
example(e160,f20,negative).
example(e160,f21,negative).
example(e160,f22,negative).
example(e160,f23,negative).
example(e160,f24,negative).
example(e160,f25,negative).
example(e160,f26,positive).
example(e160,f27,negative).
example(e160,f28,negative).
example(e160,f29,negative).
example(e160,f30,negative).
example(e160,f31,negative).
example(e160,f32,positive).
example(e160,f33,positive).
example(e160,f34,negative).
example(e161,f1,negative).
example(e161,f2,negative).
example(e161,f3,negative).
example(e161,f4,positive).
example(e161,f5,negative).
example(e161,f6,negative).
example(e161,f7,positive).
example(e161,f8,positive).
example(e161,f9,negative).
example(e161,f10,negative).
example(e161,f11,negative).
example(e161,f12,negative).
example(e161,f13,negative).
example(e161,f14,negative).
example(e161,f15,negative).
example(e161,f16,negative).
example(e161,f17,negative).
example(e161,f18,negative).
example(e161,f19,negative).
example(e161,f20,negative).
example(e161,f21,positive).
example(e161,f22,negative).
example(e161,f23,negative).
example(e161,f24,negative).
example(e161,f25,positive).
example(e161,f26,negative).
example(e161,f27,negative).
example(e161,f28,negative).
example(e161,f29,negative).
example(e161,f30,negative).
example(e161,f31,negative).
example(e161,f32,negative).
example(e161,f33,positive).
example(e161,f34,negative).
example(e162,f1,negative).
example(e162,f2,negative).
example(e162,f3,negative).
example(e162,f4,positive).
example(e162,f5,positive).
example(e162,f6,positive).
example(e162,f7,negative).
example(e162,f8,positive).
example(e162,f9,negative).
example(e162,f10,negative).
example(e162,f11,negative).
example(e162,f12,negative).
example(e162,f13,negative).
example(e162,f14,negative).
example(e162,f15,positive).
example(e162,f16,negative).
example(e162,f17,negative).
example(e162,f18,negative).
example(e162,f19,negative).
example(e162,f20,negative).
example(e162,f21,negative).
example(e162,f22,negative).
example(e162,f23,negative).
example(e162,f24,negative).
example(e162,f25,positive).
example(e162,f26,negative).
example(e162,f27,negative).
example(e162,f28,negative).
example(e162,f29,negative).
example(e162,f30,negative).
example(e162,f31,negative).
example(e162,f32,positive).
example(e162,f33,positive).
example(e162,f34,negative).
example(e163,f1,negative).
example(e163,f2,negative).
example(e163,f3,negative).
example(e163,f4,negative).
example(e163,f5,negative).
example(e163,f6,negative).
example(e163,f7,positive).
example(e163,f8,negative).
example(e163,f9,negative).
example(e163,f10,negative).
example(e163,f11,negative).
example(e163,f12,negative).
example(e163,f13,negative).
example(e163,f14,negative).
example(e163,f15,negative).
example(e163,f16,negative).
example(e163,f17,negative).
example(e163,f18,negative).
example(e163,f19,negative).
example(e163,f20,negative).
example(e163,f21,positive).
example(e163,f22,negative).
example(e163,f23,negative).
example(e163,f24,negative).
example(e163,f25,positive).
example(e163,f26,negative).
example(e163,f27,negative).
example(e163,f28,negative).
example(e163,f29,negative).
example(e163,f30,positive).
example(e163,f31,positive).
example(e163,f32,positive).
example(e163,f33,positive).
example(e163,f34,negative).
example(e164,f1,negative).
example(e164,f2,negative).
example(e164,f3,negative).
example(e164,f4,negative).
example(e164,f5,negative).
example(e164,f6,positive).
example(e164,f7,positive).
example(e164,f8,negative).
example(e164,f9,negative).
example(e164,f10,negative).
example(e164,f11,negative).
example(e164,f12,negative).
example(e164,f13,negative).
example(e164,f14,negative).
example(e164,f15,negative).
example(e164,f16,positive).
example(e164,f17,negative).
example(e164,f18,negative).
example(e164,f19,negative).
example(e164,f20,negative).
example(e164,f21,negative).
example(e164,f22,negative).
example(e164,f23,negative).
example(e164,f24,negative).
example(e164,f25,negative).
example(e164,f26,positive).
example(e164,f27,negative).
example(e164,f28,negative).
example(e164,f29,negative).
example(e164,f30,positive).
example(e164,f31,positive).
example(e164,f32,positive).
example(e164,f33,positive).
example(e164,f34,negative).
example(e165,f1,negative).
example(e165,f2,negative).
example(e165,f3,negative).
example(e165,f4,positive).
example(e165,f5,positive).
example(e165,f6,negative).
example(e165,f7,positive).
example(e165,f8,positive).
example(e165,f9,negative).
example(e165,f10,negative).
example(e165,f11,negative).
example(e165,f12,negative).
example(e165,f13,negative).
example(e165,f14,negative).
example(e165,f15,negative).
example(e165,f16,positive).
example(e165,f17,negative).
example(e165,f18,negative).
example(e165,f19,negative).
example(e165,f20,negative).
example(e165,f21,negative).
example(e165,f22,negative).
example(e165,f23,negative).
example(e165,f24,negative).
example(e165,f25,negative).
example(e165,f26,positive).
example(e165,f27,negative).
example(e165,f28,negative).
example(e165,f29,negative).
example(e165,f30,positive).
example(e165,f31,negative).
example(e165,f32,negative).
example(e165,f33,positive).
example(e165,f34,negative).
example(e166,f1,negative).
example(e166,f2,negative).
example(e166,f3,negative).
example(e166,f4,positive).
example(e166,f5,negative).
example(e166,f6,positive).
example(e166,f7,positive).
example(e166,f8,positive).
example(e166,f9,negative).
example(e166,f10,negative).
example(e166,f11,negative).
example(e166,f12,negative).
example(e166,f13,negative).
example(e166,f14,negative).
example(e166,f15,positive).
example(e166,f16,negative).
example(e166,f17,negative).
example(e166,f18,negative).
example(e166,f19,negative).
example(e166,f20,negative).
example(e166,f21,negative).
example(e166,f22,negative).
example(e166,f23,negative).
example(e166,f24,negative).
example(e166,f25,positive).
example(e166,f26,negative).
example(e166,f27,negative).
example(e166,f28,negative).
example(e166,f29,negative).
example(e166,f30,negative).
example(e166,f31,negative).
example(e166,f32,positive).
example(e166,f33,negative).
example(e166,f34,negative).
example(e167,f1,negative).
example(e167,f2,negative).
example(e167,f3,negative).
example(e167,f4,positive).
example(e167,f5,negative).
example(e167,f6,negative).
example(e167,f7,positive).
example(e167,f8,positive).
example(e167,f9,negative).
example(e167,f10,negative).
example(e167,f11,negative).
example(e167,f12,negative).
example(e167,f13,negative).
example(e167,f14,negative).
example(e167,f15,negative).
example(e167,f16,negative).
example(e167,f17,negative).
example(e167,f18,negative).
example(e167,f19,negative).
example(e167,f20,negative).
example(e167,f21,negative).
example(e167,f22,negative).
example(e167,f23,negative).
example(e167,f24,negative).
example(e167,f25,negative).
example(e167,f26,negative).
example(e167,f27,negative).
example(e167,f28,negative).
example(e167,f29,negative).
example(e167,f30,negative).
example(e167,f31,negative).
example(e167,f32,positive).
example(e167,f33,positive).
example(e167,f34,negative).
example(e168,f1,negative).
example(e168,f2,negative).
example(e168,f3,negative).
example(e168,f4,positive).
example(e168,f5,negative).
example(e168,f6,positive).
example(e168,f7,negative).
example(e168,f8,negative).
example(e168,f9,negative).
example(e168,f10,negative).
example(e168,f11,negative).
example(e168,f12,negative).
example(e168,f13,negative).
example(e168,f14,positive).
example(e168,f15,negative).
example(e168,f16,negative).
example(e168,f17,negative).
example(e168,f18,negative).
example(e168,f19,negative).
example(e168,f20,negative).
example(e168,f21,negative).
example(e168,f22,negative).
example(e168,f23,negative).
example(e168,f24,negative).
example(e168,f25,positive).
example(e168,f26,negative).
example(e168,f27,negative).
example(e168,f28,negative).
example(e168,f29,negative).
example(e168,f30,negative).
example(e168,f31,negative).
example(e168,f32,negative).
example(e168,f33,positive).
example(e168,f34,negative).
example(e169,f1,negative).
example(e169,f2,negative).
example(e169,f3,negative).
example(e169,f4,positive).
example(e169,f5,negative).
example(e169,f6,negative).
example(e169,f7,positive).
example(e169,f8,positive).
example(e169,f9,negative).
example(e169,f10,negative).
example(e169,f11,negative).
example(e169,f12,negative).
example(e169,f13,negative).
example(e169,f14,negative).
example(e169,f15,negative).
example(e169,f16,negative).
example(e169,f17,negative).
example(e169,f18,negative).
example(e169,f19,positive).
example(e169,f20,negative).
example(e169,f21,negative).
example(e169,f22,negative).
example(e169,f23,negative).
example(e169,f24,negative).
example(e169,f25,positive).
example(e169,f26,negative).
example(e169,f27,negative).
example(e169,f28,negative).
example(e169,f29,negative).
example(e169,f30,negative).
example(e169,f31,negative).
example(e169,f32,negative).
example(e169,f33,positive).
example(e169,f34,negative).
example(e170,f1,negative).
example(e170,f2,negative).
example(e170,f3,negative).
example(e170,f4,positive).
example(e170,f5,negative).
example(e170,f6,negative).
example(e170,f7,positive).
example(e170,f8,negative).
example(e170,f9,negative).
example(e170,f10,negative).
example(e170,f11,negative).
example(e170,f12,negative).
example(e170,f13,negative).
example(e170,f14,negative).
example(e170,f15,negative).
example(e170,f16,negative).
example(e170,f17,negative).
example(e170,f18,negative).
example(e170,f19,positive).
example(e170,f20,negative).
example(e170,f21,negative).
example(e170,f22,negative).
example(e170,f23,negative).
example(e170,f24,negative).
example(e170,f25,positive).
example(e170,f26,negative).
example(e170,f27,negative).
example(e170,f28,negative).
example(e170,f29,negative).
example(e170,f30,positive).
example(e170,f31,negative).
example(e170,f32,negative).
example(e170,f33,positive).
example(e170,f34,negative).
example(e171,f1,negative).
example(e171,f2,negative).
example(e171,f3,negative).
example(e171,f4,positive).
example(e171,f5,negative).
example(e171,f6,positive).
example(e171,f7,negative).
example(e171,f8,positive).
example(e171,f9,negative).
example(e171,f10,negative).
example(e171,f11,negative).
example(e171,f12,negative).
example(e171,f13,negative).
example(e171,f14,negative).
example(e171,f15,negative).
example(e171,f16,negative).
example(e171,f17,negative).
example(e171,f18,negative).
example(e171,f19,negative).
example(e171,f20,positive).
example(e171,f21,negative).
example(e171,f22,negative).
example(e171,f23,negative).
example(e171,f24,negative).
example(e171,f25,positive).
example(e171,f26,negative).
example(e171,f27,negative).
example(e171,f28,negative).
example(e171,f29,negative).
example(e171,f30,positive).
example(e171,f31,negative).
example(e171,f32,negative).
example(e171,f33,negative).
example(e171,f34,negative).
example(e172,f1,negative).
example(e172,f2,negative).
example(e172,f3,negative).
example(e172,f4,negative).
example(e172,f5,negative).
example(e172,f6,negative).
example(e172,f7,negative).
example(e172,f8,negative).
example(e172,f9,negative).
example(e172,f10,negative).
example(e172,f11,negative).
example(e172,f12,negative).
example(e172,f13,negative).
example(e172,f14,negative).
example(e172,f15,negative).
example(e172,f16,negative).
example(e172,f17,negative).
example(e172,f18,negative).
example(e172,f19,negative).
example(e172,f20,negative).
example(e172,f21,positive).
example(e172,f22,negative).
example(e172,f23,negative).
example(e172,f24,negative).
example(e172,f25,positive).
example(e172,f26,negative).
example(e172,f27,negative).
example(e172,f28,negative).
example(e172,f29,negative).
example(e172,f30,positive).
example(e172,f31,positive).
example(e172,f32,positive).
example(e172,f33,positive).
example(e172,f34,negative).
example(e173,f1,negative).
example(e173,f2,negative).
example(e173,f3,negative).
example(e173,f4,negative).
example(e173,f5,negative).
example(e173,f6,negative).
example(e173,f7,positive).
example(e173,f8,positive).
example(e173,f9,negative).
example(e173,f10,negative).
example(e173,f11,negative).
example(e173,f12,negative).
example(e173,f13,negative).
example(e173,f14,negative).
example(e173,f15,negative).
example(e173,f16,positive).
example(e173,f17,negative).
example(e173,f18,negative).
example(e173,f19,negative).
example(e173,f20,negative).
example(e173,f21,negative).
example(e173,f22,negative).
example(e173,f23,negative).
example(e173,f24,negative).
example(e173,f25,positive).
example(e173,f26,negative).
example(e173,f27,negative).
example(e173,f28,negative).
example(e173,f29,negative).
example(e173,f30,negative).
example(e173,f31,positive).
example(e173,f32,positive).
example(e173,f33,positive).
example(e173,f34,negative).
example(e174,f1,negative).
example(e174,f2,negative).
example(e174,f3,negative).
example(e174,f4,positive).
example(e174,f5,negative).
example(e174,f6,positive).
example(e174,f7,positive).
example(e174,f8,negative).
example(e174,f9,negative).
example(e174,f10,negative).
example(e174,f11,negative).
example(e174,f12,negative).
example(e174,f13,negative).
example(e174,f14,negative).
example(e174,f15,negative).
example(e174,f16,negative).
example(e174,f17,negative).
example(e174,f18,negative).
example(e174,f19,negative).
example(e174,f20,negative).
example(e174,f21,positive).
example(e174,f22,negative).
example(e174,f23,negative).
example(e174,f24,negative).
example(e174,f25,negative).
example(e174,f26,negative).
example(e174,f27,negative).
example(e174,f28,positive).
example(e174,f29,negative).
example(e174,f30,positive).
example(e174,f31,negative).
example(e174,f32,negative).
example(e174,f33,positive).
example(e174,f34,negative).
example(e175,f1,negative).
example(e175,f2,negative).
example(e175,f3,negative).
example(e175,f4,negative).
example(e175,f5,negative).
example(e175,f6,positive).
example(e175,f7,negative).
example(e175,f8,positive).
example(e175,f9,negative).
example(e175,f10,negative).
example(e175,f11,positive).
example(e175,f12,negative).
example(e175,f13,negative).
example(e175,f14,negative).
example(e175,f15,negative).
example(e175,f16,negative).
example(e175,f17,negative).
example(e175,f18,negative).
example(e175,f19,negative).
example(e175,f20,negative).
example(e175,f21,negative).
example(e175,f22,negative).
example(e175,f23,negative).
example(e175,f24,negative).
example(e175,f25,positive).
example(e175,f26,negative).
example(e175,f27,negative).
example(e175,f28,negative).
example(e175,f29,negative).
example(e175,f30,positive).
example(e175,f31,positive).
example(e175,f32,positive).
example(e175,f33,positive).
example(e175,f34,negative).
example(e176,f1,negative).
example(e176,f2,negative).
example(e176,f3,negative).
example(e176,f4,positive).
example(e176,f5,negative).
example(e176,f6,positive).
example(e176,f7,positive).
example(e176,f8,positive).
example(e176,f9,negative).
example(e176,f10,negative).
example(e176,f11,negative).
example(e176,f12,negative).
example(e176,f13,negative).
example(e176,f14,positive).
example(e176,f15,negative).
example(e176,f16,negative).
example(e176,f17,negative).
example(e176,f18,negative).
example(e176,f19,negative).
example(e176,f20,negative).
example(e176,f21,negative).
example(e176,f22,negative).
example(e176,f23,negative).
example(e176,f24,negative).
example(e176,f25,negative).
example(e176,f26,negative).
example(e176,f27,negative).
example(e176,f28,positive).
example(e176,f29,negative).
example(e176,f30,positive).
example(e176,f31,negative).
example(e176,f32,positive).
example(e176,f33,positive).
example(e176,f34,negative).
example(e177,f1,negative).
example(e177,f2,negative).
example(e177,f3,negative).
example(e177,f4,positive).
example(e177,f5,positive).
example(e177,f6,negative).
example(e177,f7,negative).
example(e177,f8,negative).
example(e177,f9,negative).
example(e177,f10,negative).
example(e177,f11,negative).
example(e177,f12,negative).
example(e177,f13,negative).
example(e177,f14,negative).
example(e177,f15,negative).
example(e177,f16,negative).
example(e177,f17,negative).
example(e177,f18,negative).
example(e177,f19,negative).
example(e177,f20,negative).
example(e177,f21,negative).
example(e177,f22,negative).
example(e177,f23,negative).
example(e177,f24,negative).
example(e177,f25,negative).
example(e177,f26,negative).
example(e177,f27,negative).
example(e177,f28,negative).
example(e177,f29,negative).
example(e177,f30,negative).
example(e177,f31,negative).
example(e177,f32,positive).
example(e177,f33,positive).
example(e177,f34,negative).
example(e178,f1,negative).
example(e178,f2,negative).
example(e178,f3,positive).
example(e178,f4,positive).
example(e178,f5,negative).
example(e178,f6,negative).
example(e178,f7,negative).
example(e178,f8,positive).
example(e178,f9,negative).
example(e178,f10,negative).
example(e178,f11,negative).
example(e178,f12,negative).
example(e178,f13,negative).
example(e178,f14,negative).
example(e178,f15,negative).
example(e178,f16,negative).
example(e178,f17,negative).
example(e178,f18,negative).
example(e178,f19,negative).
example(e178,f20,negative).
example(e178,f21,negative).
example(e178,f22,negative).
example(e178,f23,negative).
example(e178,f24,negative).
example(e178,f25,negative).
example(e178,f26,negative).
example(e178,f27,negative).
example(e178,f28,negative).
example(e178,f29,negative).
example(e178,f30,negative).
example(e178,f31,negative).
example(e178,f32,positive).
example(e178,f33,negative).
example(e178,f34,negative).
example(e179,f1,negative).
example(e179,f2,negative).
example(e179,f3,negative).
example(e179,f4,negative).
example(e179,f5,negative).
example(e179,f6,positive).
example(e179,f7,positive).
example(e179,f8,positive).
example(e179,f9,negative).
example(e179,f10,negative).
example(e179,f11,negative).
example(e179,f12,negative).
example(e179,f13,positive).
example(e179,f14,negative).
example(e179,f15,negative).
example(e179,f16,negative).
example(e179,f17,negative).
example(e179,f18,negative).
example(e179,f19,negative).
example(e179,f20,negative).
example(e179,f21,negative).
example(e179,f22,negative).
example(e179,f23,negative).
example(e179,f24,negative).
example(e179,f25,negative).
example(e179,f26,negative).
example(e179,f27,negative).
example(e179,f28,positive).
example(e179,f29,negative).
example(e179,f30,positive).
example(e179,f31,positive).
example(e179,f32,negative).
example(e179,f33,positive).
example(e179,f34,negative).
example(e180,f1,negative).
example(e180,f2,negative).
example(e180,f3,negative).
example(e180,f4,positive).
example(e180,f5,negative).
example(e180,f6,positive).
example(e180,f7,positive).
example(e180,f8,positive).
example(e180,f9,negative).
example(e180,f10,negative).
example(e180,f11,positive).
example(e180,f12,negative).
example(e180,f13,negative).
example(e180,f14,negative).
example(e180,f15,negative).
example(e180,f16,negative).
example(e180,f17,negative).
example(e180,f18,negative).
example(e180,f19,negative).
example(e180,f20,negative).
example(e180,f21,negative).
example(e180,f22,negative).
example(e180,f23,negative).
example(e180,f24,negative).
example(e180,f25,negative).
example(e180,f26,negative).
example(e180,f27,negative).
example(e180,f28,positive).
example(e180,f29,negative).
example(e180,f30,positive).
example(e180,f31,negative).
example(e180,f32,positive).
example(e180,f33,positive).
example(e180,f34,negative).
example(e181,f1,negative).
example(e181,f2,negative).
example(e181,f3,negative).
example(e181,f4,positive).
example(e181,f5,positive).
example(e181,f6,negative).
example(e181,f7,positive).
example(e181,f8,negative).
example(e181,f9,negative).
example(e181,f10,negative).
example(e181,f11,negative).
example(e181,f12,negative).
example(e181,f13,negative).
example(e181,f14,negative).
example(e181,f15,negative).
example(e181,f16,negative).
example(e181,f17,negative).
example(e181,f18,negative).
example(e181,f19,negative).
example(e181,f20,negative).
example(e181,f21,negative).
example(e181,f22,positive).
example(e181,f23,negative).
example(e181,f24,negative).
example(e181,f25,positive).
example(e181,f26,negative).
example(e181,f27,negative).
example(e181,f28,negative).
example(e181,f29,negative).
example(e181,f30,negative).
example(e181,f31,negative).
example(e181,f32,negative).
example(e181,f33,positive).
example(e181,f34,negative).
example(e182,f1,negative).
example(e182,f2,negative).
example(e182,f3,negative).
example(e182,f4,negative).
example(e182,f5,negative).
example(e182,f6,positive).
example(e182,f7,negative).
example(e182,f8,positive).
example(e182,f9,negative).
example(e182,f10,negative).
example(e182,f11,negative).
example(e182,f12,negative).
example(e182,f13,negative).
example(e182,f14,negative).
example(e182,f15,negative).
example(e182,f16,negative).
example(e182,f17,positive).
example(e182,f18,negative).
example(e182,f19,negative).
example(e182,f20,negative).
example(e182,f21,negative).
example(e182,f22,negative).
example(e182,f23,negative).
example(e182,f24,negative).
example(e182,f25,negative).
example(e182,f26,positive).
example(e182,f27,negative).
example(e182,f28,negative).
example(e182,f29,negative).
example(e182,f30,positive).
example(e182,f31,positive).
example(e182,f32,positive).
example(e182,f33,positive).
example(e182,f34,negative).
example(e183,f1,negative).
example(e183,f2,negative).
example(e183,f3,negative).
example(e183,f4,negative).
example(e183,f5,negative).
example(e183,f6,negative).
example(e183,f7,positive).
example(e183,f8,positive).
example(e183,f9,negative).
example(e183,f10,negative).
example(e183,f11,negative).
example(e183,f12,negative).
example(e183,f13,positive).
example(e183,f14,negative).
example(e183,f15,negative).
example(e183,f16,negative).
example(e183,f17,negative).
example(e183,f18,negative).
example(e183,f19,negative).
example(e183,f20,negative).
example(e183,f21,negative).
example(e183,f22,negative).
example(e183,f23,negative).
example(e183,f24,negative).
example(e183,f25,positive).
example(e183,f26,negative).
example(e183,f27,negative).
example(e183,f28,negative).
example(e183,f29,negative).
example(e183,f30,positive).
example(e183,f31,positive).
example(e183,f32,positive).
example(e183,f33,positive).
example(e183,f34,negative).
example(e184,f1,negative).
example(e184,f2,negative).
example(e184,f3,negative).
example(e184,f4,positive).
example(e184,f5,negative).
example(e184,f6,positive).
example(e184,f7,positive).
example(e184,f8,negative).
example(e184,f9,negative).
example(e184,f10,negative).
example(e184,f11,negative).
example(e184,f12,negative).
example(e184,f13,negative).
example(e184,f14,negative).
example(e184,f15,positive).
example(e184,f16,negative).
example(e184,f17,negative).
example(e184,f18,negative).
example(e184,f19,negative).
example(e184,f20,negative).
example(e184,f21,negative).
example(e184,f22,negative).
example(e184,f23,negative).
example(e184,f24,negative).
example(e184,f25,positive).
example(e184,f26,negative).
example(e184,f27,negative).
example(e184,f28,negative).
example(e184,f29,negative).
example(e184,f30,positive).
example(e184,f31,negative).
example(e184,f32,positive).
example(e184,f33,negative).
example(e184,f34,negative).
example(e185,f1,negative).
example(e185,f2,negative).
example(e185,f3,negative).
example(e185,f4,positive).
example(e185,f5,negative).
example(e185,f6,negative).
example(e185,f7,positive).
example(e185,f8,negative).
example(e185,f9,negative).
example(e185,f10,negative).
example(e185,f11,negative).
example(e185,f12,negative).
example(e185,f13,negative).
example(e185,f14,negative).
example(e185,f15,negative).
example(e185,f16,negative).
example(e185,f17,negative).
example(e185,f18,negative).
example(e185,f19,negative).
example(e185,f20,negative).
example(e185,f21,negative).
example(e185,f22,positive).
example(e185,f23,negative).
example(e185,f24,negative).
example(e185,f25,positive).
example(e185,f26,negative).
example(e185,f27,negative).
example(e185,f28,negative).
example(e185,f29,negative).
example(e185,f30,positive).
example(e185,f31,negative).
example(e185,f32,positive).
example(e185,f33,positive).
example(e185,f34,negative).
example(e186,f1,negative).
example(e186,f2,negative).
example(e186,f3,negative).
example(e186,f4,positive).
example(e186,f5,negative).
example(e186,f6,positive).
example(e186,f7,positive).
example(e186,f8,positive).
example(e186,f9,negative).
example(e186,f10,negative).
example(e186,f11,negative).
example(e186,f12,negative).
example(e186,f13,positive).
example(e186,f14,negative).
example(e186,f15,negative).
example(e186,f16,negative).
example(e186,f17,negative).
example(e186,f18,negative).
example(e186,f19,negative).
example(e186,f20,negative).
example(e186,f21,negative).
example(e186,f22,negative).
example(e186,f23,negative).
example(e186,f24,negative).
example(e186,f25,negative).
example(e186,f26,negative).
example(e186,f27,negative).
example(e186,f28,positive).
example(e186,f29,negative).
example(e186,f30,negative).
example(e186,f31,negative).
example(e186,f32,positive).
example(e186,f33,negative).
example(e186,f34,negative).
example(e187,f1,negative).
example(e187,f2,negative).
example(e187,f3,negative).
example(e187,f4,positive).
example(e187,f5,negative).
example(e187,f6,positive).
example(e187,f7,positive).
example(e187,f8,positive).
example(e187,f9,negative).
example(e187,f10,negative).
example(e187,f11,negative).
example(e187,f12,negative).
example(e187,f13,negative).
example(e187,f14,negative).
example(e187,f15,negative).
example(e187,f16,negative).
example(e187,f17,negative).
example(e187,f18,negative).
example(e187,f19,negative).
example(e187,f20,negative).
example(e187,f21,positive).
example(e187,f22,negative).
example(e187,f23,negative).
example(e187,f24,negative).
example(e187,f25,negative).
example(e187,f26,positive).
example(e187,f27,negative).
example(e187,f28,negative).
example(e187,f29,negative).
example(e187,f30,positive).
example(e187,f31,negative).
example(e187,f32,positive).
example(e187,f33,negative).
example(e187,f34,negative).
example(e188,f1,negative).
example(e188,f2,negative).
example(e188,f3,negative).
example(e188,f4,positive).
example(e188,f5,negative).
example(e188,f6,positive).
example(e188,f7,positive).
example(e188,f8,positive).
example(e188,f9,negative).
example(e188,f10,negative).
example(e188,f11,negative).
example(e188,f12,negative).
example(e188,f13,negative).
example(e188,f14,negative).
example(e188,f15,negative).
example(e188,f16,negative).
example(e188,f17,negative).
example(e188,f18,negative).
example(e188,f19,negative).
example(e188,f20,negative).
example(e188,f21,negative).
example(e188,f22,positive).
example(e188,f23,negative).
example(e188,f24,negative).
example(e188,f25,positive).
example(e188,f26,negative).
example(e188,f27,negative).
example(e188,f28,negative).
example(e188,f29,negative).
example(e188,f30,negative).
example(e188,f31,negative).
example(e188,f32,negative).
example(e188,f33,positive).
example(e188,f34,negative).
example(e189,f1,negative).
example(e189,f2,negative).
example(e189,f3,negative).
example(e189,f4,positive).
example(e189,f5,negative).
example(e189,f6,positive).
example(e189,f7,negative).
example(e189,f8,positive).
example(e189,f9,negative).
example(e189,f10,negative).
example(e189,f11,negative).
example(e189,f12,negative).
example(e189,f13,negative).
example(e189,f14,negative).
example(e189,f15,negative).
example(e189,f16,negative).
example(e189,f17,negative).
example(e189,f18,negative).
example(e189,f19,negative).
example(e189,f20,negative).
example(e189,f21,negative).
example(e189,f22,positive).
example(e189,f23,negative).
example(e189,f24,negative).
example(e189,f25,positive).
example(e189,f26,negative).
example(e189,f27,negative).
example(e189,f28,negative).
example(e189,f29,negative).
example(e189,f30,negative).
example(e189,f31,negative).
example(e189,f32,positive).
example(e189,f33,positive).
example(e189,f34,negative).
example(e190,f1,negative).
example(e190,f2,negative).
example(e190,f3,positive).
example(e190,f4,negative).
example(e190,f5,negative).
example(e190,f6,negative).
example(e190,f7,negative).
example(e190,f8,positive).
example(e190,f9,negative).
example(e190,f10,negative).
example(e190,f11,negative).
example(e190,f12,negative).
example(e190,f13,negative).
example(e190,f14,negative).
example(e190,f15,negative).
example(e190,f16,negative).
example(e190,f17,negative).
example(e190,f18,positive).
example(e190,f19,negative).
example(e190,f20,negative).
example(e190,f21,negative).
example(e190,f22,negative).
example(e190,f23,negative).
example(e190,f24,positive).
example(e190,f25,negative).
example(e190,f26,negative).
example(e190,f27,negative).
example(e190,f28,negative).
example(e190,f29,negative).
example(e190,f30,negative).
example(e190,f31,positive).
example(e190,f32,negative).
example(e190,f33,positive).
example(e190,f34,negative).
example(e191,f1,negative).
example(e191,f2,negative).
example(e191,f3,negative).
example(e191,f4,positive).
example(e191,f5,negative).
example(e191,f6,negative).
example(e191,f7,positive).
example(e191,f8,positive).
example(e191,f9,negative).
example(e191,f10,negative).
example(e191,f11,negative).
example(e191,f12,negative).
example(e191,f13,negative).
example(e191,f14,negative).
example(e191,f15,negative).
example(e191,f16,negative).
example(e191,f17,positive).
example(e191,f18,negative).
example(e191,f19,negative).
example(e191,f20,negative).
example(e191,f21,negative).
example(e191,f22,negative).
example(e191,f23,negative).
example(e191,f24,negative).
example(e191,f25,positive).
example(e191,f26,negative).
example(e191,f27,negative).
example(e191,f28,negative).
example(e191,f29,negative).
example(e191,f30,negative).
example(e191,f31,negative).
example(e191,f32,positive).
example(e191,f33,positive).
example(e191,f34,negative).
example(e192,f1,negative).
example(e192,f2,negative).
example(e192,f3,negative).
example(e192,f4,negative).
example(e192,f5,negative).
example(e192,f6,positive).
example(e192,f7,positive).
example(e192,f8,positive).
example(e192,f9,negative).
example(e192,f10,negative).
example(e192,f11,negative).
example(e192,f12,negative).
example(e192,f13,negative).
example(e192,f14,negative).
example(e192,f15,negative).
example(e192,f16,negative).
example(e192,f17,negative).
example(e192,f18,negative).
example(e192,f19,positive).
example(e192,f20,negative).
example(e192,f21,negative).
example(e192,f22,negative).
example(e192,f23,negative).
example(e192,f24,negative).
example(e192,f25,positive).
example(e192,f26,negative).
example(e192,f27,negative).
example(e192,f28,negative).
example(e192,f29,negative).
example(e192,f30,positive).
example(e192,f31,positive).
example(e192,f32,positive).
example(e192,f33,positive).
example(e192,f34,negative).
example(e193,f1,negative).
example(e193,f2,negative).
example(e193,f3,negative).
example(e193,f4,positive).
example(e193,f5,negative).
example(e193,f6,positive).
example(e193,f7,negative).
example(e193,f8,positive).
example(e193,f9,negative).
example(e193,f10,negative).
example(e193,f11,negative).
example(e193,f12,negative).
example(e193,f13,negative).
example(e193,f14,negative).
example(e193,f15,negative).
example(e193,f16,positive).
example(e193,f17,negative).
example(e193,f18,negative).
example(e193,f19,negative).
example(e193,f20,negative).
example(e193,f21,negative).
example(e193,f22,negative).
example(e193,f23,negative).
example(e193,f24,negative).
example(e193,f25,negative).
example(e193,f26,positive).
example(e193,f27,negative).
example(e193,f28,negative).
example(e193,f29,negative).
example(e193,f30,positive).
example(e193,f31,negative).
example(e193,f32,positive).
example(e193,f33,positive).
example(e193,f34,negative).
example(e194,f1,negative).
example(e194,f2,positive).
example(e194,f3,positive).
example(e194,f4,positive).
example(e194,f5,negative).
example(e194,f6,positive).
example(e194,f7,positive).
example(e194,f8,positive).
example(e194,f9,negative).
example(e194,f10,negative).
example(e194,f11,negative).
example(e194,f12,negative).
example(e194,f13,negative).
example(e194,f14,negative).
example(e194,f15,negative).
example(e194,f16,negative).
example(e194,f17,negative).
example(e194,f18,negative).
example(e194,f19,negative).
example(e194,f20,negative).
example(e194,f21,positive).
example(e194,f22,negative).
example(e194,f23,negative).
example(e194,f24,negative).
example(e194,f25,positive).
example(e194,f26,negative).
example(e194,f27,negative).
example(e194,f28,negative).
example(e194,f29,negative).
example(e194,f30,negative).
example(e194,f31,negative).
example(e194,f32,negative).
example(e194,f33,negative).
example(e194,f34,positive).
example(e195,f1,negative).
example(e195,f2,negative).
example(e195,f3,negative).
example(e195,f4,positive).
example(e195,f5,negative).
example(e195,f6,positive).
example(e195,f7,positive).
example(e195,f8,positive).
example(e195,f9,negative).
example(e195,f10,negative).
example(e195,f11,negative).
example(e195,f12,negative).
example(e195,f13,negative).
example(e195,f14,negative).
example(e195,f15,negative).
example(e195,f16,negative).
example(e195,f17,negative).
example(e195,f18,negative).
example(e195,f19,negative).
example(e195,f20,negative).
example(e195,f21,positive).
example(e195,f22,negative).
example(e195,f23,negative).
example(e195,f24,negative).
example(e195,f25,negative).
example(e195,f26,negative).
example(e195,f27,negative).
example(e195,f28,positive).
example(e195,f29,negative).
example(e195,f30,positive).
example(e195,f31,negative).
example(e195,f32,negative).
example(e195,f33,positive).
example(e195,f34,negative).
example(e196,f1,negative).
example(e196,f2,negative).
example(e196,f3,negative).
example(e196,f4,negative).
example(e196,f5,negative).
example(e196,f6,negative).
example(e196,f7,positive).
example(e196,f8,positive).
example(e196,f9,negative).
example(e196,f10,negative).
example(e196,f11,negative).
example(e196,f12,negative).
example(e196,f13,negative).
example(e196,f14,negative).
example(e196,f15,negative).
example(e196,f16,negative).
example(e196,f17,negative).
example(e196,f18,negative).
example(e196,f19,negative).
example(e196,f20,negative).
example(e196,f21,positive).
example(e196,f22,negative).
example(e196,f23,negative).
example(e196,f24,negative).
example(e196,f25,positive).
example(e196,f26,negative).
example(e196,f27,negative).
example(e196,f28,negative).
example(e196,f29,negative).
example(e196,f30,positive).
example(e196,f31,positive).
example(e196,f32,negative).
example(e196,f33,positive).
example(e196,f34,negative).
example(e197,f1,negative).
example(e197,f2,negative).
example(e197,f3,negative).
example(e197,f4,negative).
example(e197,f5,negative).
example(e197,f6,negative).
example(e197,f7,negative).
example(e197,f8,positive).
example(e197,f9,negative).
example(e197,f10,negative).
example(e197,f11,positive).
example(e197,f12,negative).
example(e197,f13,negative).
example(e197,f14,negative).
example(e197,f15,negative).
example(e197,f16,negative).
example(e197,f17,negative).
example(e197,f18,negative).
example(e197,f19,negative).
example(e197,f20,negative).
example(e197,f21,negative).
example(e197,f22,negative).
example(e197,f23,negative).
example(e197,f24,negative).
example(e197,f25,positive).
example(e197,f26,negative).
example(e197,f27,negative).
example(e197,f28,negative).
example(e197,f29,negative).
example(e197,f30,positive).
example(e197,f31,positive).
example(e197,f32,negative).
example(e197,f33,positive).
example(e197,f34,negative).
example(e198,f1,negative).
example(e198,f2,negative).
example(e198,f3,negative).
example(e198,f4,negative).
example(e198,f5,negative).
example(e198,f6,negative).
example(e198,f7,positive).
example(e198,f8,positive).
example(e198,f9,negative).
example(e198,f10,negative).
example(e198,f11,positive).
example(e198,f12,negative).
example(e198,f13,negative).
example(e198,f14,negative).
example(e198,f15,negative).
example(e198,f16,negative).
example(e198,f17,negative).
example(e198,f18,negative).
example(e198,f19,negative).
example(e198,f20,negative).
example(e198,f21,negative).
example(e198,f22,negative).
example(e198,f23,negative).
example(e198,f24,negative).
example(e198,f25,positive).
example(e198,f26,negative).
example(e198,f27,negative).
example(e198,f28,negative).
example(e198,f29,negative).
example(e198,f30,negative).
example(e198,f31,positive).
example(e198,f32,negative).
example(e198,f33,positive).
example(e198,f34,negative).
example(e199,f1,negative).
example(e199,f2,negative).
example(e199,f3,positive).
example(e199,f4,negative).
example(e199,f5,negative).
example(e199,f6,negative).
example(e199,f7,negative).
example(e199,f8,positive).
example(e199,f9,negative).
example(e199,f10,negative).
example(e199,f11,negative).
example(e199,f12,negative).
example(e199,f13,negative).
example(e199,f14,negative).
example(e199,f15,negative).
example(e199,f16,negative).
example(e199,f17,negative).
example(e199,f18,negative).
example(e199,f19,negative).
example(e199,f20,negative).
example(e199,f21,negative).
example(e199,f22,negative).
example(e199,f23,negative).
example(e199,f24,negative).
example(e199,f25,negative).
example(e199,f26,negative).
example(e199,f27,negative).
example(e199,f28,negative).
example(e199,f29,negative).
example(e199,f30,negative).
example(e199,f31,positive).
example(e199,f32,negative).
example(e199,f33,positive).
example(e199,f34,negative).
example(e200,f1,negative).
example(e200,f2,negative).
example(e200,f3,negative).
example(e200,f4,negative).
example(e200,f5,negative).
example(e200,f6,positive).
example(e200,f7,positive).
example(e200,f8,positive).
example(e200,f9,negative).
example(e200,f10,negative).
example(e200,f11,negative).
example(e200,f12,negative).
example(e200,f13,negative).
example(e200,f14,negative).
example(e200,f15,negative).
example(e200,f16,negative).
example(e200,f17,negative).
example(e200,f18,negative).
example(e200,f19,positive).
example(e200,f20,negative).
example(e200,f21,negative).
example(e200,f22,negative).
example(e200,f23,negative).
example(e200,f24,negative).
example(e200,f25,positive).
example(e200,f26,negative).
example(e200,f27,negative).
example(e200,f28,negative).
example(e200,f29,negative).
example(e200,f30,negative).
example(e200,f31,positive).
example(e200,f32,positive).
example(e200,f33,positive).
example(e200,f34,negative).
example(e201,f1,negative).
example(e201,f2,negative).
example(e201,f3,negative).
example(e201,f4,negative).
example(e201,f5,negative).
example(e201,f6,negative).
example(e201,f7,negative).
example(e201,f8,positive).
example(e201,f9,negative).
example(e201,f10,negative).
example(e201,f11,negative).
example(e201,f12,negative).
example(e201,f13,negative).
example(e201,f14,negative).
example(e201,f15,negative).
example(e201,f16,negative).
example(e201,f17,negative).
example(e201,f18,negative).
example(e201,f19,negative).
example(e201,f20,negative).
example(e201,f21,positive).
example(e201,f22,negative).
example(e201,f23,negative).
example(e201,f24,negative).
example(e201,f25,negative).
example(e201,f26,negative).
example(e201,f27,negative).
example(e201,f28,positive).
example(e201,f29,negative).
example(e201,f30,positive).
example(e201,f31,positive).
example(e201,f32,negative).
example(e201,f33,positive).
example(e201,f34,negative).
example(e202,f1,negative).
example(e202,f2,negative).
example(e202,f3,positive).
example(e202,f4,positive).
example(e202,f5,negative).
example(e202,f6,positive).
example(e202,f7,negative).
example(e202,f8,negative).
example(e202,f9,negative).
example(e202,f10,negative).
example(e202,f11,negative).
example(e202,f12,negative).
example(e202,f13,negative).
example(e202,f14,negative).
example(e202,f15,negative).
example(e202,f16,negative).
example(e202,f17,negative).
example(e202,f18,positive).
example(e202,f19,negative).
example(e202,f20,negative).
example(e202,f21,negative).
example(e202,f22,negative).
example(e202,f23,negative).
example(e202,f24,positive).
example(e202,f25,negative).
example(e202,f26,negative).
example(e202,f27,negative).
example(e202,f28,negative).
example(e202,f29,negative).
example(e202,f30,negative).
example(e202,f31,negative).
example(e202,f32,negative).
example(e202,f33,positive).
example(e202,f34,negative).
example(e203,f1,negative).
example(e203,f2,negative).
example(e203,f3,negative).
example(e203,f4,positive).
example(e203,f5,negative).
example(e203,f6,negative).
example(e203,f7,positive).
example(e203,f8,positive).
example(e203,f9,negative).
example(e203,f10,negative).
example(e203,f11,negative).
example(e203,f12,positive).
example(e203,f13,negative).
example(e203,f14,negative).
example(e203,f15,negative).
example(e203,f16,negative).
example(e203,f17,negative).
example(e203,f18,negative).
example(e203,f19,negative).
example(e203,f20,negative).
example(e203,f21,negative).
example(e203,f22,negative).
example(e203,f23,negative).
example(e203,f24,negative).
example(e203,f25,negative).
example(e203,f26,negative).
example(e203,f27,negative).
example(e203,f28,positive).
example(e203,f29,negative).
example(e203,f30,positive).
example(e203,f31,negative).
example(e203,f32,positive).
example(e203,f33,positive).
example(e203,f34,negative).
example(e204,f1,negative).
example(e204,f2,negative).
example(e204,f3,negative).
example(e204,f4,positive).
example(e204,f5,negative).
example(e204,f6,negative).
example(e204,f7,negative).
example(e204,f8,positive).
example(e204,f9,negative).
example(e204,f10,negative).
example(e204,f11,negative).
example(e204,f12,negative).
example(e204,f13,negative).
example(e204,f14,negative).
example(e204,f15,negative).
example(e204,f16,negative).
example(e204,f17,negative).
example(e204,f18,negative).
example(e204,f19,negative).
example(e204,f20,negative).
example(e204,f21,positive).
example(e204,f22,negative).
example(e204,f23,negative).
example(e204,f24,negative).
example(e204,f25,negative).
example(e204,f26,negative).
example(e204,f27,negative).
example(e204,f28,positive).
example(e204,f29,negative).
example(e204,f30,positive).
example(e204,f31,negative).
example(e204,f32,positive).
example(e204,f33,positive).
example(e204,f34,negative).
example(e205,f1,negative).
example(e205,f2,negative).
example(e205,f3,negative).
example(e205,f4,negative).
example(e205,f5,positive).
example(e205,f6,negative).
example(e205,f7,negative).
example(e205,f8,positive).
example(e205,f9,negative).
example(e205,f10,negative).
example(e205,f11,positive).
example(e205,f12,negative).
example(e205,f13,negative).
example(e205,f14,negative).
example(e205,f15,negative).
example(e205,f16,negative).
example(e205,f17,negative).
example(e205,f18,negative).
example(e205,f19,negative).
example(e205,f20,negative).
example(e205,f21,negative).
example(e205,f22,negative).
example(e205,f23,negative).
example(e205,f24,negative).
example(e205,f25,negative).
example(e205,f26,negative).
example(e205,f27,negative).
example(e205,f28,positive).
example(e205,f29,negative).
example(e205,f30,positive).
example(e205,f31,positive).
example(e205,f32,negative).
example(e205,f33,positive).
example(e205,f34,negative).
example(e206,f1,negative).
example(e206,f2,positive).
example(e206,f3,negative).
example(e206,f4,negative).
example(e206,f5,negative).
example(e206,f6,positive).
example(e206,f7,positive).
example(e206,f8,positive).
example(e206,f9,negative).
example(e206,f10,negative).
example(e206,f11,negative).
example(e206,f12,negative).
example(e206,f13,negative).
example(e206,f14,negative).
example(e206,f15,negative).
example(e206,f16,negative).
example(e206,f17,negative).
example(e206,f18,negative).
example(e206,f19,negative).
example(e206,f20,negative).
example(e206,f21,negative).
example(e206,f22,positive).
example(e206,f23,negative).
example(e206,f24,negative).
example(e206,f25,positive).
example(e206,f26,negative).
example(e206,f27,negative).
example(e206,f28,negative).
example(e206,f29,negative).
example(e206,f30,positive).
example(e206,f31,positive).
example(e206,f32,negative).
example(e206,f33,positive).
example(e206,f34,negative).
example(e207,f1,negative).
example(e207,f2,negative).
example(e207,f3,negative).
example(e207,f4,positive).
example(e207,f5,negative).
example(e207,f6,negative).
example(e207,f7,positive).
example(e207,f8,negative).
example(e207,f9,negative).
example(e207,f10,negative).
example(e207,f11,negative).
example(e207,f12,negative).
example(e207,f13,negative).
example(e207,f14,negative).
example(e207,f15,negative).
example(e207,f16,negative).
example(e207,f17,negative).
example(e207,f18,positive).
example(e207,f19,negative).
example(e207,f20,negative).
example(e207,f21,negative).
example(e207,f22,negative).
example(e207,f23,negative).
example(e207,f24,negative).
example(e207,f25,positive).
example(e207,f26,negative).
example(e207,f27,negative).
example(e207,f28,negative).
example(e207,f29,negative).
example(e207,f30,negative).
example(e207,f31,negative).
example(e207,f32,negative).
example(e207,f33,positive).
example(e207,f34,negative).
example(e208,f1,negative).
example(e208,f2,negative).
example(e208,f3,negative).
example(e208,f4,negative).
example(e208,f5,negative).
example(e208,f6,negative).
example(e208,f7,negative).
example(e208,f8,negative).
example(e208,f9,negative).
example(e208,f10,negative).
example(e208,f11,negative).
example(e208,f12,negative).
example(e208,f13,negative).
example(e208,f14,negative).
example(e208,f15,negative).
example(e208,f16,negative).
example(e208,f17,positive).
example(e208,f18,negative).
example(e208,f19,negative).
example(e208,f20,negative).
example(e208,f21,negative).
example(e208,f22,negative).
example(e208,f23,negative).
example(e208,f24,negative).
example(e208,f25,positive).
example(e208,f26,negative).
example(e208,f27,negative).
example(e208,f28,negative).
example(e208,f29,negative).
example(e208,f30,negative).
example(e208,f31,positive).
example(e208,f32,negative).
example(e208,f33,positive).
example(e208,f34,negative).
example(e209,f1,negative).
example(e209,f2,negative).
example(e209,f3,negative).
example(e209,f4,negative).
example(e209,f5,negative).
example(e209,f6,negative).
example(e209,f7,positive).
example(e209,f8,positive).
example(e209,f9,negative).
example(e209,f10,negative).
example(e209,f11,negative).
example(e209,f12,negative).
example(e209,f13,negative).
example(e209,f14,negative).
example(e209,f15,negative).
example(e209,f16,negative).
example(e209,f17,negative).
example(e209,f18,negative).
example(e209,f19,negative).
example(e209,f20,negative).
example(e209,f21,positive).
example(e209,f22,negative).
example(e209,f23,negative).
example(e209,f24,negative).
example(e209,f25,negative).
example(e209,f26,negative).
example(e209,f27,negative).
example(e209,f28,positive).
example(e209,f29,negative).
example(e209,f30,negative).
example(e209,f31,positive).
example(e209,f32,positive).
example(e209,f33,positive).
example(e209,f34,negative).
example(e210,f1,negative).
example(e210,f2,negative).
example(e210,f3,negative).
example(e210,f4,positive).
example(e210,f5,negative).
example(e210,f6,positive).
example(e210,f7,positive).
example(e210,f8,negative).
example(e210,f9,negative).
example(e210,f10,negative).
example(e210,f11,negative).
example(e210,f12,negative).
example(e210,f13,negative).
example(e210,f14,negative).
example(e210,f15,negative).
example(e210,f16,negative).
example(e210,f17,negative).
example(e210,f18,negative).
example(e210,f19,negative).
example(e210,f20,positive).
example(e210,f21,negative).
example(e210,f22,negative).
example(e210,f23,negative).
example(e210,f24,negative).
example(e210,f25,positive).
example(e210,f26,negative).
example(e210,f27,negative).
example(e210,f28,negative).
example(e210,f29,negative).
example(e210,f30,negative).
example(e210,f31,negative).
example(e210,f32,positive).
example(e210,f33,positive).
example(e210,f34,negative).
example(e211,f1,negative).
example(e211,f2,negative).
example(e211,f3,negative).
example(e211,f4,negative).
example(e211,f5,negative).
example(e211,f6,negative).
example(e211,f7,negative).
example(e211,f8,positive).
example(e211,f9,negative).
example(e211,f10,negative).
example(e211,f11,negative).
example(e211,f12,negative).
example(e211,f13,negative).
example(e211,f14,negative).
example(e211,f15,negative).
example(e211,f16,negative).
example(e211,f17,positive).
example(e211,f18,negative).
example(e211,f19,negative).
example(e211,f20,negative).
example(e211,f21,negative).
example(e211,f22,negative).
example(e211,f23,negative).
example(e211,f24,negative).
example(e211,f25,positive).
example(e211,f26,negative).
example(e211,f27,negative).
example(e211,f28,negative).
example(e211,f29,negative).
example(e211,f30,positive).
example(e211,f31,positive).
example(e211,f32,negative).
example(e211,f33,positive).
example(e211,f34,negative).
example(e212,f1,negative).
example(e212,f2,negative).
example(e212,f3,negative).
example(e212,f4,positive).
example(e212,f5,negative).
example(e212,f6,negative).
example(e212,f7,positive).
example(e212,f8,negative).
example(e212,f9,negative).
example(e212,f10,negative).
example(e212,f11,negative).
example(e212,f12,negative).
example(e212,f13,negative).
example(e212,f14,negative).
example(e212,f15,negative).
example(e212,f16,negative).
example(e212,f17,positive).
example(e212,f18,negative).
example(e212,f19,negative).
example(e212,f20,negative).
example(e212,f21,negative).
example(e212,f22,negative).
example(e212,f23,negative).
example(e212,f24,negative).
example(e212,f25,negative).
example(e212,f26,negative).
example(e212,f27,negative).
example(e212,f28,positive).
example(e212,f29,negative).
example(e212,f30,positive).
example(e212,f31,negative).
example(e212,f32,negative).
example(e212,f33,positive).
example(e212,f34,negative).
example(e213,f1,negative).
example(e213,f2,negative).
example(e213,f3,negative).
example(e213,f4,positive).
example(e213,f5,negative).
example(e213,f6,positive).
example(e213,f7,positive).
example(e213,f8,negative).
example(e213,f9,negative).
example(e213,f10,negative).
example(e213,f11,negative).
example(e213,f12,negative).
example(e213,f13,negative).
example(e213,f14,negative).
example(e213,f15,negative).
example(e213,f16,negative).
example(e213,f17,negative).
example(e213,f18,negative).
example(e213,f19,negative).
example(e213,f20,negative).
example(e213,f21,positive).
example(e213,f22,negative).
example(e213,f23,negative).
example(e213,f24,negative).
example(e213,f25,positive).
example(e213,f26,negative).
example(e213,f27,negative).
example(e213,f28,negative).
example(e213,f29,negative).
example(e213,f30,negative).
example(e213,f31,negative).
example(e213,f32,positive).
example(e213,f33,positive).
example(e213,f34,negative).
example(e214,f1,negative).
example(e214,f2,negative).
example(e214,f3,negative).
example(e214,f4,negative).
example(e214,f5,negative).
example(e214,f6,negative).
example(e214,f7,positive).
example(e214,f8,positive).
example(e214,f9,negative).
example(e214,f10,negative).
example(e214,f11,negative).
example(e214,f12,negative).
example(e214,f13,negative).
example(e214,f14,negative).
example(e214,f15,negative).
example(e214,f16,negative).
example(e214,f17,positive).
example(e214,f18,negative).
example(e214,f19,negative).
example(e214,f20,negative).
example(e214,f21,negative).
example(e214,f22,negative).
example(e214,f23,negative).
example(e214,f24,negative).
example(e214,f25,positive).
example(e214,f26,negative).
example(e214,f27,negative).
example(e214,f28,negative).
example(e214,f29,negative).
example(e214,f30,positive).
example(e214,f31,positive).
example(e214,f32,positive).
example(e214,f33,positive).
example(e214,f34,negative).
example(e215,f1,negative).
example(e215,f2,negative).
example(e215,f3,positive).
example(e215,f4,positive).
example(e215,f5,negative).
example(e215,f6,negative).
example(e215,f7,negative).
example(e215,f8,negative).
example(e215,f9,negative).
example(e215,f10,negative).
example(e215,f11,negative).
example(e215,f12,negative).
example(e215,f13,negative).
example(e215,f14,negative).
example(e215,f15,negative).
example(e215,f16,negative).
example(e215,f17,negative).
example(e215,f18,negative).
example(e215,f19,negative).
example(e215,f20,negative).
example(e215,f21,negative).
example(e215,f22,negative).
example(e215,f23,negative).
example(e215,f24,negative).
example(e215,f25,negative).
example(e215,f26,negative).
example(e215,f27,negative).
example(e215,f28,negative).
example(e215,f29,negative).
example(e215,f30,negative).
example(e215,f31,negative).
example(e215,f32,positive).
example(e215,f33,positive).
example(e215,f34,negative).
example(e216,f1,negative).
example(e216,f2,negative).
example(e216,f3,negative).
example(e216,f4,negative).
example(e216,f5,positive).
example(e216,f6,positive).
example(e216,f7,negative).
example(e216,f8,positive).
example(e216,f9,negative).
example(e216,f10,negative).
example(e216,f11,positive).
example(e216,f12,negative).
example(e216,f13,negative).
example(e216,f14,negative).
example(e216,f15,negative).
example(e216,f16,negative).
example(e216,f17,negative).
example(e216,f18,negative).
example(e216,f19,negative).
example(e216,f20,negative).
example(e216,f21,negative).
example(e216,f22,negative).
example(e216,f23,negative).
example(e216,f24,negative).
example(e216,f25,negative).
example(e216,f26,negative).
example(e216,f27,negative).
example(e216,f28,positive).
example(e216,f29,negative).
example(e216,f30,positive).
example(e216,f31,positive).
example(e216,f32,negative).
example(e216,f33,positive).
example(e216,f34,negative).
example(e217,f1,negative).
example(e217,f2,negative).
example(e217,f3,negative).
example(e217,f4,positive).
example(e217,f5,negative).
example(e217,f6,positive).
example(e217,f7,positive).
example(e217,f8,positive).
example(e217,f9,negative).
example(e217,f10,negative).
example(e217,f11,negative).
example(e217,f12,negative).
example(e217,f13,negative).
example(e217,f14,negative).
example(e217,f15,negative).
example(e217,f16,negative).
example(e217,f17,negative).
example(e217,f18,negative).
example(e217,f19,negative).
example(e217,f20,negative).
example(e217,f21,positive).
example(e217,f22,negative).
example(e217,f23,negative).
example(e217,f24,negative).
example(e217,f25,positive).
example(e217,f26,negative).
example(e217,f27,negative).
example(e217,f28,negative).
example(e217,f29,negative).
example(e217,f30,negative).
example(e217,f31,negative).
example(e217,f32,negative).
example(e217,f33,negative).
example(e217,f34,positive).
example(e218,f1,negative).
example(e218,f2,negative).
example(e218,f3,negative).
example(e218,f4,positive).
example(e218,f5,negative).
example(e218,f6,negative).
example(e218,f7,positive).
example(e218,f8,positive).
example(e218,f9,negative).
example(e218,f10,negative).
example(e218,f11,negative).
example(e218,f12,negative).
example(e218,f13,negative).
example(e218,f14,negative).
example(e218,f15,negative).
example(e218,f16,positive).
example(e218,f17,negative).
example(e218,f18,negative).
example(e218,f19,negative).
example(e218,f20,negative).
example(e218,f21,negative).
example(e218,f22,negative).
example(e218,f23,negative).
example(e218,f24,negative).
example(e218,f25,negative).
example(e218,f26,positive).
example(e218,f27,negative).
example(e218,f28,negative).
example(e218,f29,negative).
example(e218,f30,negative).
example(e218,f31,negative).
example(e218,f32,negative).
example(e218,f33,positive).
example(e218,f34,negative).
example(e219,f1,negative).
example(e219,f2,negative).
example(e219,f3,negative).
example(e219,f4,positive).
example(e219,f5,negative).
example(e219,f6,negative).
example(e219,f7,positive).
example(e219,f8,positive).
example(e219,f9,negative).
example(e219,f10,negative).
example(e219,f11,negative).
example(e219,f12,negative).
example(e219,f13,negative).
example(e219,f14,negative).
example(e219,f15,negative).
example(e219,f16,negative).
example(e219,f17,positive).
example(e219,f18,negative).
example(e219,f19,negative).
example(e219,f20,negative).
example(e219,f21,negative).
example(e219,f22,negative).
example(e219,f23,negative).
example(e219,f24,negative).
example(e219,f25,positive).
example(e219,f26,negative).
example(e219,f27,negative).
example(e219,f28,negative).
example(e219,f29,negative).
example(e219,f30,negative).
example(e219,f31,negative).
example(e219,f32,negative).
example(e219,f33,positive).
example(e219,f34,negative).
example(e220,f1,negative).
example(e220,f2,negative).
example(e220,f3,negative).
example(e220,f4,negative).
example(e220,f5,negative).
example(e220,f6,negative).
example(e220,f7,positive).
example(e220,f8,positive).
example(e220,f9,negative).
example(e220,f10,negative).
example(e220,f11,positive).
example(e220,f12,negative).
example(e220,f13,negative).
example(e220,f14,negative).
example(e220,f15,negative).
example(e220,f16,negative).
example(e220,f17,negative).
example(e220,f18,negative).
example(e220,f19,negative).
example(e220,f20,negative).
example(e220,f21,negative).
example(e220,f22,negative).
example(e220,f23,negative).
example(e220,f24,negative).
example(e220,f25,positive).
example(e220,f26,negative).
example(e220,f27,negative).
example(e220,f28,negative).
example(e220,f29,negative).
example(e220,f30,positive).
example(e220,f31,positive).
example(e220,f32,positive).
example(e220,f33,positive).
example(e220,f34,negative).
example(e221,f1,negative).
example(e221,f2,negative).
example(e221,f3,negative).
example(e221,f4,negative).
example(e221,f5,positive).
example(e221,f6,negative).
example(e221,f7,negative).
example(e221,f8,positive).
example(e221,f9,negative).
example(e221,f10,negative).
example(e221,f11,negative).
example(e221,f12,negative).
example(e221,f13,negative).
example(e221,f14,negative).
example(e221,f15,negative).
example(e221,f16,negative).
example(e221,f17,negative).
example(e221,f18,negative).
example(e221,f19,negative).
example(e221,f20,negative).
example(e221,f21,positive).
example(e221,f22,negative).
example(e221,f23,negative).
example(e221,f24,negative).
example(e221,f25,negative).
example(e221,f26,positive).
example(e221,f27,negative).
example(e221,f28,negative).
example(e221,f29,negative).
example(e221,f30,positive).
example(e221,f31,positive).
example(e221,f32,positive).
example(e221,f33,positive).
example(e221,f34,negative).
example(e222,f1,negative).
example(e222,f2,negative).
example(e222,f3,negative).
example(e222,f4,positive).
example(e222,f5,positive).
example(e222,f6,positive).
example(e222,f7,positive).
example(e222,f8,positive).
example(e222,f9,negative).
example(e222,f10,negative).
example(e222,f11,negative).
example(e222,f12,negative).
example(e222,f13,negative).
example(e222,f14,negative).
example(e222,f15,negative).
example(e222,f16,negative).
example(e222,f17,negative).
example(e222,f18,negative).
example(e222,f19,negative).
example(e222,f20,negative).
example(e222,f21,positive).
example(e222,f22,negative).
example(e222,f23,negative).
example(e222,f24,negative).
example(e222,f25,positive).
example(e222,f26,negative).
example(e222,f27,negative).
example(e222,f28,negative).
example(e222,f29,negative).
example(e222,f30,negative).
example(e222,f31,negative).
example(e222,f32,negative).
example(e222,f33,positive).
example(e222,f34,negative).
example(e223,f1,negative).
example(e223,f2,negative).
example(e223,f3,negative).
example(e223,f4,negative).
example(e223,f5,negative).
example(e223,f6,negative).
example(e223,f7,positive).
example(e223,f8,positive).
example(e223,f9,negative).
example(e223,f10,negative).
example(e223,f11,negative).
example(e223,f12,negative).
example(e223,f13,negative).
example(e223,f14,negative).
example(e223,f15,negative).
example(e223,f16,negative).
example(e223,f17,negative).
example(e223,f18,negative).
example(e223,f19,negative).
example(e223,f20,negative).
example(e223,f21,positive).
example(e223,f22,negative).
example(e223,f23,negative).
example(e223,f24,negative).
example(e223,f25,positive).
example(e223,f26,negative).
example(e223,f27,negative).
example(e223,f28,negative).
example(e223,f29,negative).
example(e223,f30,positive).
example(e223,f31,positive).
example(e223,f32,positive).
example(e223,f33,positive).
example(e223,f34,negative).
example(e224,f1,negative).
example(e224,f2,negative).
example(e224,f3,negative).
example(e224,f4,negative).
example(e224,f5,negative).
example(e224,f6,negative).
example(e224,f7,positive).
example(e224,f8,positive).
example(e224,f9,negative).
example(e224,f10,negative).
example(e224,f11,negative).
example(e224,f12,negative).
example(e224,f13,negative).
example(e224,f14,negative).
example(e224,f15,negative).
example(e224,f16,negative).
example(e224,f17,negative).
example(e224,f18,negative).
example(e224,f19,negative).
example(e224,f20,positive).
example(e224,f21,negative).
example(e224,f22,negative).
example(e224,f23,negative).
example(e224,f24,negative).
example(e224,f25,positive).
example(e224,f26,negative).
example(e224,f27,negative).
example(e224,f28,negative).
example(e224,f29,negative).
example(e224,f30,negative).
example(e224,f31,positive).
example(e224,f32,positive).
example(e224,f33,positive).
example(e224,f34,negative).
example(e225,f1,negative).
example(e225,f2,negative).
example(e225,f3,negative).
example(e225,f4,positive).
example(e225,f5,negative).
example(e225,f6,positive).
example(e225,f7,positive).
example(e225,f8,positive).
example(e225,f9,negative).
example(e225,f10,negative).
example(e225,f11,negative).
example(e225,f12,negative).
example(e225,f13,negative).
example(e225,f14,negative).
example(e225,f15,negative).
example(e225,f16,positive).
example(e225,f17,negative).
example(e225,f18,negative).
example(e225,f19,negative).
example(e225,f20,negative).
example(e225,f21,negative).
example(e225,f22,negative).
example(e225,f23,negative).
example(e225,f24,negative).
example(e225,f25,negative).
example(e225,f26,positive).
example(e225,f27,negative).
example(e225,f28,negative).
example(e225,f29,negative).
example(e225,f30,positive).
example(e225,f31,negative).
example(e225,f32,negative).
example(e225,f33,positive).
example(e225,f34,negative).
example(e226,f1,negative).
example(e226,f2,negative).
example(e226,f3,negative).
example(e226,f4,positive).
example(e226,f5,negative).
example(e226,f6,positive).
example(e226,f7,positive).
example(e226,f8,positive).
example(e226,f9,negative).
example(e226,f10,negative).
example(e226,f11,negative).
example(e226,f12,negative).
example(e226,f13,negative).
example(e226,f14,negative).
example(e226,f15,negative).
example(e226,f16,negative).
example(e226,f17,positive).
example(e226,f18,negative).
example(e226,f19,negative).
example(e226,f20,negative).
example(e226,f21,negative).
example(e226,f22,negative).
example(e226,f23,negative).
example(e226,f24,negative).
example(e226,f25,positive).
example(e226,f26,negative).
example(e226,f27,negative).
example(e226,f28,negative).
example(e226,f29,negative).
example(e226,f30,positive).
example(e226,f31,negative).
example(e226,f32,negative).
example(e226,f33,negative).
example(e226,f34,negative).
example(e227,f1,negative).
example(e227,f2,negative).
example(e227,f3,negative).
example(e227,f4,positive).
example(e227,f5,positive).
example(e227,f6,negative).
example(e227,f7,positive).
example(e227,f8,negative).
example(e227,f9,negative).
example(e227,f10,negative).
example(e227,f11,negative).
example(e227,f12,negative).
example(e227,f13,negative).
example(e227,f14,negative).
example(e227,f15,negative).
example(e227,f16,positive).
example(e227,f17,negative).
example(e227,f18,negative).
example(e227,f19,negative).
example(e227,f20,negative).
example(e227,f21,negative).
example(e227,f22,negative).
example(e227,f23,negative).
example(e227,f24,negative).
example(e227,f25,negative).
example(e227,f26,positive).
example(e227,f27,negative).
example(e227,f28,negative).
example(e227,f29,negative).
example(e227,f30,negative).
example(e227,f31,negative).
example(e227,f32,negative).
example(e227,f33,positive).
example(e227,f34,negative).
example(e228,f1,negative).
example(e228,f2,negative).
example(e228,f3,positive).
example(e228,f4,positive).
example(e228,f5,positive).
example(e228,f6,positive).
example(e228,f7,positive).
example(e228,f8,positive).
example(e228,f9,negative).
example(e228,f10,positive).
example(e228,f11,negative).
example(e228,f12,negative).
example(e228,f13,negative).
example(e228,f14,negative).
example(e228,f15,negative).
example(e228,f16,negative).
example(e228,f17,negative).
example(e228,f18,negative).
example(e228,f19,negative).
example(e228,f20,negative).
example(e228,f21,negative).
example(e228,f22,negative).
example(e228,f23,positive).
example(e228,f24,negative).
example(e228,f25,negative).
example(e228,f26,negative).
example(e228,f27,negative).
example(e228,f28,negative).
example(e228,f29,negative).
example(e228,f30,positive).
example(e228,f31,negative).
example(e228,f32,negative).
example(e228,f33,positive).
example(e228,f34,negative).
example(e229,f1,negative).
example(e229,f2,negative).
example(e229,f3,negative).
example(e229,f4,negative).
example(e229,f5,negative).
example(e229,f6,negative).
example(e229,f7,positive).
example(e229,f8,positive).
example(e229,f9,negative).
example(e229,f10,negative).
example(e229,f11,negative).
example(e229,f12,negative).
example(e229,f13,positive).
example(e229,f14,negative).
example(e229,f15,negative).
example(e229,f16,negative).
example(e229,f17,negative).
example(e229,f18,negative).
example(e229,f19,negative).
example(e229,f20,negative).
example(e229,f21,negative).
example(e229,f22,negative).
example(e229,f23,negative).
example(e229,f24,negative).
example(e229,f25,negative).
example(e229,f26,negative).
example(e229,f27,negative).
example(e229,f28,positive).
example(e229,f29,negative).
example(e229,f30,positive).
example(e229,f31,positive).
example(e229,f32,positive).
example(e229,f33,positive).
example(e229,f34,negative).
example(e230,f1,negative).
example(e230,f2,negative).
example(e230,f3,negative).
example(e230,f4,negative).
example(e230,f5,negative).
example(e230,f6,negative).
example(e230,f7,negative).
example(e230,f8,positive).
example(e230,f9,negative).
example(e230,f10,negative).
example(e230,f11,positive).
example(e230,f12,negative).
example(e230,f13,negative).
example(e230,f14,negative).
example(e230,f15,negative).
example(e230,f16,negative).
example(e230,f17,negative).
example(e230,f18,negative).
example(e230,f19,negative).
example(e230,f20,negative).
example(e230,f21,negative).
example(e230,f22,negative).
example(e230,f23,negative).
example(e230,f24,negative).
example(e230,f25,negative).
example(e230,f26,negative).
example(e230,f27,negative).
example(e230,f28,positive).
example(e230,f29,negative).
example(e230,f30,positive).
example(e230,f31,positive).
example(e230,f32,positive).
example(e230,f33,positive).
example(e230,f34,negative).
example(e231,f1,negative).
example(e231,f2,negative).
example(e231,f3,negative).
example(e231,f4,negative).
example(e231,f5,negative).
example(e231,f6,negative).
example(e231,f7,negative).
example(e231,f8,positive).
example(e231,f9,negative).
example(e231,f10,negative).
example(e231,f11,positive).
example(e231,f12,negative).
example(e231,f13,negative).
example(e231,f14,negative).
example(e231,f15,negative).
example(e231,f16,negative).
example(e231,f17,negative).
example(e231,f18,negative).
example(e231,f19,negative).
example(e231,f20,negative).
example(e231,f21,negative).
example(e231,f22,negative).
example(e231,f23,negative).
example(e231,f24,negative).
example(e231,f25,positive).
example(e231,f26,negative).
example(e231,f27,negative).
example(e231,f28,negative).
example(e231,f29,negative).
example(e231,f30,positive).
example(e231,f31,positive).
example(e231,f32,negative).
example(e231,f33,positive).
example(e231,f34,negative).
example(e232,f1,negative).
example(e232,f2,negative).
example(e232,f3,negative).
example(e232,f4,negative).
example(e232,f5,negative).
example(e232,f6,negative).
example(e232,f7,positive).
example(e232,f8,positive).
example(e232,f9,negative).
example(e232,f10,negative).
example(e232,f11,negative).
example(e232,f12,negative).
example(e232,f13,negative).
example(e232,f14,negative).
example(e232,f15,negative).
example(e232,f16,negative).
example(e232,f17,negative).
example(e232,f18,negative).
example(e232,f19,negative).
example(e232,f20,negative).
example(e232,f21,negative).
example(e232,f22,positive).
example(e232,f23,negative).
example(e232,f24,negative).
example(e232,f25,positive).
example(e232,f26,negative).
example(e232,f27,negative).
example(e232,f28,negative).
example(e232,f29,negative).
example(e232,f30,negative).
example(e232,f31,positive).
example(e232,f32,positive).
example(e232,f33,positive).
example(e232,f34,negative).
example(e233,f1,negative).
example(e233,f2,negative).
example(e233,f3,negative).
example(e233,f4,positive).
example(e233,f5,negative).
example(e233,f6,positive).
example(e233,f7,positive).
example(e233,f8,negative).
example(e233,f9,negative).
example(e233,f10,negative).
example(e233,f11,negative).
example(e233,f12,negative).
example(e233,f13,negative).
example(e233,f14,positive).
example(e233,f15,negative).
example(e233,f16,negative).
example(e233,f17,negative).
example(e233,f18,negative).
example(e233,f19,negative).
example(e233,f20,negative).
example(e233,f21,negative).
example(e233,f22,negative).
example(e233,f23,negative).
example(e233,f24,negative).
example(e233,f25,negative).
example(e233,f26,negative).
example(e233,f27,negative).
example(e233,f28,positive).
example(e233,f29,negative).
example(e233,f30,positive).
example(e233,f31,negative).
example(e233,f32,positive).
example(e233,f33,positive).
example(e233,f34,negative).
example(e234,f1,negative).
example(e234,f2,negative).
example(e234,f3,negative).
example(e234,f4,negative).
example(e234,f5,positive).
example(e234,f6,negative).
example(e234,f7,positive).
example(e234,f8,negative).
example(e234,f9,negative).
example(e234,f10,negative).
example(e234,f11,negative).
example(e234,f12,negative).
example(e234,f13,negative).
example(e234,f14,negative).
example(e234,f15,negative).
example(e234,f16,negative).
example(e234,f17,negative).
example(e234,f18,negative).
example(e234,f19,negative).
example(e234,f20,negative).
example(e234,f21,positive).
example(e234,f22,negative).
example(e234,f23,negative).
example(e234,f24,negative).
example(e234,f25,positive).
example(e234,f26,negative).
example(e234,f27,negative).
example(e234,f28,negative).
example(e234,f29,negative).
example(e234,f30,positive).
example(e234,f31,positive).
example(e234,f32,negative).
example(e234,f33,positive).
example(e234,f34,negative).
example(e235,f1,negative).
example(e235,f2,negative).
example(e235,f3,positive).
example(e235,f4,negative).
example(e235,f5,negative).
example(e235,f6,negative).
example(e235,f7,negative).
example(e235,f8,positive).
example(e235,f9,negative).
example(e235,f10,negative).
example(e235,f11,negative).
example(e235,f12,negative).
example(e235,f13,negative).
example(e235,f14,negative).
example(e235,f15,negative).
example(e235,f16,negative).
example(e235,f17,negative).
example(e235,f18,negative).
example(e235,f19,negative).
example(e235,f20,negative).
example(e235,f21,negative).
example(e235,f22,negative).
example(e235,f23,negative).
example(e235,f24,negative).
example(e235,f25,negative).
example(e235,f26,negative).
example(e235,f27,negative).
example(e235,f28,negative).
example(e235,f29,negative).
example(e235,f30,positive).
example(e235,f31,positive).
example(e235,f32,negative).
example(e235,f33,positive).
example(e235,f34,negative).
example(e236,f1,negative).
example(e236,f2,negative).
example(e236,f3,negative).
example(e236,f4,negative).
example(e236,f5,positive).
example(e236,f6,negative).
example(e236,f7,negative).
example(e236,f8,negative).
example(e236,f9,negative).
example(e236,f10,negative).
example(e236,f11,negative).
example(e236,f12,negative).
example(e236,f13,negative).
example(e236,f14,positive).
example(e236,f15,negative).
example(e236,f16,negative).
example(e236,f17,negative).
example(e236,f18,negative).
example(e236,f19,negative).
example(e236,f20,negative).
example(e236,f21,negative).
example(e236,f22,negative).
example(e236,f23,negative).
example(e236,f24,negative).
example(e236,f25,negative).
example(e236,f26,negative).
example(e236,f27,negative).
example(e236,f28,positive).
example(e236,f29,negative).
example(e236,f30,positive).
example(e236,f31,positive).
example(e236,f32,negative).
example(e236,f33,positive).
example(e236,f34,negative).
example(e237,f1,negative).
example(e237,f2,negative).
example(e237,f3,negative).
example(e237,f4,positive).
example(e237,f5,negative).
example(e237,f6,negative).
example(e237,f7,negative).
example(e237,f8,negative).
example(e237,f9,negative).
example(e237,f10,negative).
example(e237,f11,negative).
example(e237,f12,negative).
example(e237,f13,negative).
example(e237,f14,negative).
example(e237,f15,negative).
example(e237,f16,positive).
example(e237,f17,negative).
example(e237,f18,negative).
example(e237,f19,negative).
example(e237,f20,negative).
example(e237,f21,negative).
example(e237,f22,negative).
example(e237,f23,negative).
example(e237,f24,negative).
example(e237,f25,negative).
example(e237,f26,positive).
example(e237,f27,negative).
example(e237,f28,negative).
example(e237,f29,negative).
example(e237,f30,negative).
example(e237,f31,negative).
example(e237,f32,negative).
example(e237,f33,positive).
example(e237,f34,negative).
example(e238,f1,negative).
example(e238,f2,negative).
example(e238,f3,positive).
example(e238,f4,positive).
example(e238,f5,positive).
example(e238,f6,positive).
example(e238,f7,negative).
example(e238,f8,positive).
example(e238,f9,negative).
example(e238,f10,negative).
example(e238,f11,negative).
example(e238,f12,negative).
example(e238,f13,negative).
example(e238,f14,negative).
example(e238,f15,negative).
example(e238,f16,negative).
example(e238,f17,negative).
example(e238,f18,negative).
example(e238,f19,negative).
example(e238,f20,negative).
example(e238,f21,negative).
example(e238,f22,negative).
example(e238,f23,negative).
example(e238,f24,negative).
example(e238,f25,negative).
example(e238,f26,negative).
example(e238,f27,negative).
example(e238,f28,negative).
example(e238,f29,negative).
example(e238,f30,negative).
example(e238,f31,negative).
example(e238,f32,negative).
example(e238,f33,negative).
example(e238,f34,negative).
example(e239,f1,negative).
example(e239,f2,negative).
example(e239,f3,negative).
example(e239,f4,positive).
example(e239,f5,negative).
example(e239,f6,positive).
example(e239,f7,positive).
example(e239,f8,positive).
example(e239,f9,negative).
example(e239,f10,negative).
example(e239,f11,negative).
example(e239,f12,negative).
example(e239,f13,negative).
example(e239,f14,negative).
example(e239,f15,negative).
example(e239,f16,negative).
example(e239,f17,positive).
example(e239,f18,negative).
example(e239,f19,negative).
example(e239,f20,negative).
example(e239,f21,negative).
example(e239,f22,negative).
example(e239,f23,negative).
example(e239,f24,negative).
example(e239,f25,positive).
example(e239,f26,negative).
example(e239,f27,negative).
example(e239,f28,negative).
example(e239,f29,negative).
example(e239,f30,negative).
example(e239,f31,negative).
example(e239,f32,positive).
example(e239,f33,positive).
example(e239,f34,negative).
example(e240,f1,negative).
example(e240,f2,negative).
example(e240,f3,negative).
example(e240,f4,positive).
example(e240,f5,negative).
example(e240,f6,positive).
example(e240,f7,positive).
example(e240,f8,positive).
example(e240,f9,negative).
example(e240,f10,negative).
example(e240,f11,negative).
example(e240,f12,negative).
example(e240,f13,negative).
example(e240,f14,negative).
example(e240,f15,negative).
example(e240,f16,negative).
example(e240,f17,negative).
example(e240,f18,negative).
example(e240,f19,negative).
example(e240,f20,positive).
example(e240,f21,negative).
example(e240,f22,negative).
example(e240,f23,negative).
example(e240,f24,negative).
example(e240,f25,positive).
example(e240,f26,negative).
example(e240,f27,negative).
example(e240,f28,negative).
example(e240,f29,negative).
example(e240,f30,positive).
example(e240,f31,negative).
example(e240,f32,negative).
example(e240,f33,negative).
example(e240,f34,negative).
example(e241,f1,negative).
example(e241,f2,negative).
example(e241,f3,positive).
example(e241,f4,positive).
example(e241,f5,positive).
example(e241,f6,negative).
example(e241,f7,negative).
example(e241,f8,negative).
example(e241,f9,negative).
example(e241,f10,positive).
example(e241,f11,negative).
example(e241,f12,negative).
example(e241,f13,negative).
example(e241,f14,negative).
example(e241,f15,negative).
example(e241,f16,negative).
example(e241,f17,negative).
example(e241,f18,negative).
example(e241,f19,negative).
example(e241,f20,negative).
example(e241,f21,negative).
example(e241,f22,negative).
example(e241,f23,negative).
example(e241,f24,negative).
example(e241,f25,negative).
example(e241,f26,negative).
example(e241,f27,negative).
example(e241,f28,negative).
example(e241,f29,positive).
example(e241,f30,positive).
example(e241,f31,negative).
example(e241,f32,negative).
example(e241,f33,positive).
example(e241,f34,negative).
example(e242,f1,negative).
example(e242,f2,negative).
example(e242,f3,negative).
example(e242,f4,negative).
example(e242,f5,negative).
example(e242,f6,negative).
example(e242,f7,positive).
example(e242,f8,positive).
example(e242,f9,negative).
example(e242,f10,negative).
example(e242,f11,negative).
example(e242,f12,negative).
example(e242,f13,negative).
example(e242,f14,negative).
example(e242,f15,negative).
example(e242,f16,negative).
example(e242,f17,positive).
example(e242,f18,negative).
example(e242,f19,negative).
example(e242,f20,negative).
example(e242,f21,negative).
example(e242,f22,negative).
example(e242,f23,negative).
example(e242,f24,negative).
example(e242,f25,positive).
example(e242,f26,negative).
example(e242,f27,negative).
example(e242,f28,negative).
example(e242,f29,negative).
example(e242,f30,positive).
example(e242,f31,positive).
example(e242,f32,negative).
example(e242,f33,positive).
example(e242,f34,negative).
example(e243,f1,negative).
example(e243,f2,negative).
example(e243,f3,negative).
example(e243,f4,negative).
example(e243,f5,positive).
example(e243,f6,negative).
example(e243,f7,positive).
example(e243,f8,positive).
example(e243,f9,negative).
example(e243,f10,negative).
example(e243,f11,negative).
example(e243,f12,negative).
example(e243,f13,negative).
example(e243,f14,negative).
example(e243,f15,negative).
example(e243,f16,positive).
example(e243,f17,negative).
example(e243,f18,negative).
example(e243,f19,negative).
example(e243,f20,negative).
example(e243,f21,negative).
example(e243,f22,negative).
example(e243,f23,negative).
example(e243,f24,negative).
example(e243,f25,negative).
example(e243,f26,positive).
example(e243,f27,negative).
example(e243,f28,negative).
example(e243,f29,negative).
example(e243,f30,positive).
example(e243,f31,positive).
example(e243,f32,positive).
example(e243,f33,positive).
example(e243,f34,negative).
example(e244,f1,negative).
example(e244,f2,negative).
example(e244,f3,negative).
example(e244,f4,positive).
example(e244,f5,positive).
example(e244,f6,negative).
example(e244,f7,positive).
example(e244,f8,positive).
example(e244,f9,negative).
example(e244,f10,negative).
example(e244,f11,negative).
example(e244,f12,negative).
example(e244,f13,negative).
example(e244,f14,negative).
example(e244,f15,negative).
example(e244,f16,negative).
example(e244,f17,negative).
example(e244,f18,negative).
example(e244,f19,negative).
example(e244,f20,negative).
example(e244,f21,positive).
example(e244,f22,negative).
example(e244,f23,negative).
example(e244,f24,negative).
example(e244,f25,positive).
example(e244,f26,negative).
example(e244,f27,negative).
example(e244,f28,negative).
example(e244,f29,negative).
example(e244,f30,positive).
example(e244,f31,negative).
example(e244,f32,negative).
example(e244,f33,positive).
example(e244,f34,negative).
example(e245,f1,negative).
example(e245,f2,negative).
example(e245,f3,negative).
example(e245,f4,positive).
example(e245,f5,negative).
example(e245,f6,positive).
example(e245,f7,positive).
example(e245,f8,positive).
example(e245,f9,negative).
example(e245,f10,negative).
example(e245,f11,negative).
example(e245,f12,negative).
example(e245,f13,negative).
example(e245,f14,negative).
example(e245,f15,positive).
example(e245,f16,negative).
example(e245,f17,negative).
example(e245,f18,negative).
example(e245,f19,negative).
example(e245,f20,negative).
example(e245,f21,negative).
example(e245,f22,negative).
example(e245,f23,negative).
example(e245,f24,negative).
example(e245,f25,negative).
example(e245,f26,negative).
example(e245,f27,negative).
example(e245,f28,positive).
example(e245,f29,negative).
example(e245,f30,negative).
example(e245,f31,negative).
example(e245,f32,negative).
example(e245,f33,positive).
example(e245,f34,negative).
example(e246,f1,negative).
example(e246,f2,negative).
example(e246,f3,negative).
example(e246,f4,negative).
example(e246,f5,negative).
example(e246,f6,negative).
example(e246,f7,negative).
example(e246,f8,positive).
example(e246,f9,negative).
example(e246,f10,negative).
example(e246,f11,negative).
example(e246,f12,negative).
example(e246,f13,negative).
example(e246,f14,negative).
example(e246,f15,negative).
example(e246,f16,positive).
example(e246,f17,negative).
example(e246,f18,negative).
example(e246,f19,negative).
example(e246,f20,negative).
example(e246,f21,negative).
example(e246,f22,negative).
example(e246,f23,negative).
example(e246,f24,negative).
example(e246,f25,positive).
example(e246,f26,negative).
example(e246,f27,negative).
example(e246,f28,negative).
example(e246,f29,negative).
example(e246,f30,negative).
example(e246,f31,positive).
example(e246,f32,positive).
example(e246,f33,positive).
example(e246,f34,negative).
example(e247,f1,negative).
example(e247,f2,negative).
example(e247,f3,negative).
example(e247,f4,negative).
example(e247,f5,negative).
example(e247,f6,negative).
example(e247,f7,negative).
example(e247,f8,positive).
example(e247,f9,negative).
example(e247,f10,negative).
example(e247,f11,negative).
example(e247,f12,negative).
example(e247,f13,negative).
example(e247,f14,negative).
example(e247,f15,negative).
example(e247,f16,negative).
example(e247,f17,negative).
example(e247,f18,negative).
example(e247,f19,positive).
example(e247,f20,negative).
example(e247,f21,negative).
example(e247,f22,negative).
example(e247,f23,negative).
example(e247,f24,negative).
example(e247,f25,positive).
example(e247,f26,negative).
example(e247,f27,negative).
example(e247,f28,negative).
example(e247,f29,negative).
example(e247,f30,negative).
example(e247,f31,positive).
example(e247,f32,positive).
example(e247,f33,positive).
example(e247,f34,negative).
example(e248,f1,negative).
example(e248,f2,negative).
example(e248,f3,negative).
example(e248,f4,negative).
example(e248,f5,positive).
example(e248,f6,negative).
example(e248,f7,positive).
example(e248,f8,positive).
example(e248,f9,negative).
example(e248,f10,negative).
example(e248,f11,negative).
example(e248,f12,negative).
example(e248,f13,negative).
example(e248,f14,negative).
example(e248,f15,negative).
example(e248,f16,negative).
example(e248,f17,negative).
example(e248,f18,negative).
example(e248,f19,negative).
example(e248,f20,negative).
example(e248,f21,negative).
example(e248,f22,negative).
example(e248,f23,negative).
example(e248,f24,negative).
example(e248,f25,negative).
example(e248,f26,negative).
example(e248,f27,negative).
example(e248,f28,negative).
example(e248,f29,negative).
example(e248,f30,positive).
example(e248,f31,positive).
example(e248,f32,positive).
example(e248,f33,positive).
example(e248,f34,negative).
example(e249,f1,negative).
example(e249,f2,negative).
example(e249,f3,negative).
example(e249,f4,negative).
example(e249,f5,negative).
example(e249,f6,positive).
example(e249,f7,positive).
example(e249,f8,positive).
example(e249,f9,negative).
example(e249,f10,negative).
example(e249,f11,negative).
example(e249,f12,negative).
example(e249,f13,negative).
example(e249,f14,negative).
example(e249,f15,negative).
example(e249,f16,negative).
example(e249,f17,positive).
example(e249,f18,negative).
example(e249,f19,negative).
example(e249,f20,negative).
example(e249,f21,negative).
example(e249,f22,negative).
example(e249,f23,negative).
example(e249,f24,negative).
example(e249,f25,negative).
example(e249,f26,negative).
example(e249,f27,negative).
example(e249,f28,positive).
example(e249,f29,negative).
example(e249,f30,positive).
example(e249,f31,positive).
example(e249,f32,positive).
example(e249,f33,positive).
example(e249,f34,negative).
example(e250,f1,negative).
example(e250,f2,negative).
example(e250,f3,negative).
example(e250,f4,positive).
example(e250,f5,negative).
example(e250,f6,positive).
example(e250,f7,positive).
example(e250,f8,positive).
example(e250,f9,negative).
example(e250,f10,negative).
example(e250,f11,negative).
example(e250,f12,negative).
example(e250,f13,negative).
example(e250,f14,negative).
example(e250,f15,negative).
example(e250,f16,positive).
example(e250,f17,negative).
example(e250,f18,negative).
example(e250,f19,negative).
example(e250,f20,negative).
example(e250,f21,negative).
example(e250,f22,negative).
example(e250,f23,negative).
example(e250,f24,negative).
example(e250,f25,negative).
example(e250,f26,positive).
example(e250,f27,negative).
example(e250,f28,negative).
example(e250,f29,negative).
example(e250,f30,negative).
example(e250,f31,negative).
example(e250,f32,negative).
example(e250,f33,positive).
example(e250,f34,negative).
example(e251,f1,negative).
example(e251,f2,negative).
example(e251,f3,negative).
example(e251,f4,positive).
example(e251,f5,positive).
example(e251,f6,positive).
example(e251,f7,positive).
example(e251,f8,positive).
example(e251,f9,negative).
example(e251,f10,negative).
example(e251,f11,negative).
example(e251,f12,negative).
example(e251,f13,negative).
example(e251,f14,negative).
example(e251,f15,negative).
example(e251,f16,negative).
example(e251,f17,negative).
example(e251,f18,negative).
example(e251,f19,positive).
example(e251,f20,negative).
example(e251,f21,negative).
example(e251,f22,negative).
example(e251,f23,negative).
example(e251,f24,negative).
example(e251,f25,positive).
example(e251,f26,negative).
example(e251,f27,negative).
example(e251,f28,negative).
example(e251,f29,negative).
example(e251,f30,negative).
example(e251,f31,negative).
example(e251,f32,positive).
example(e251,f33,positive).
example(e251,f34,negative).
example(e252,f1,negative).
example(e252,f2,negative).
example(e252,f3,negative).
example(e252,f4,positive).
example(e252,f5,negative).
example(e252,f6,negative).
example(e252,f7,positive).
example(e252,f8,negative).
example(e252,f9,negative).
example(e252,f10,negative).
example(e252,f11,negative).
example(e252,f12,negative).
example(e252,f13,negative).
example(e252,f14,negative).
example(e252,f15,negative).
example(e252,f16,negative).
example(e252,f17,negative).
example(e252,f18,negative).
example(e252,f19,positive).
example(e252,f20,negative).
example(e252,f21,negative).
example(e252,f22,negative).
example(e252,f23,negative).
example(e252,f24,negative).
example(e252,f25,positive).
example(e252,f26,negative).
example(e252,f27,negative).
example(e252,f28,negative).
example(e252,f29,negative).
example(e252,f30,negative).
example(e252,f31,negative).
example(e252,f32,positive).
example(e252,f33,positive).
example(e252,f34,negative).
example(e253,f1,negative).
example(e253,f2,negative).
example(e253,f3,negative).
example(e253,f4,negative).
example(e253,f5,positive).
example(e253,f6,negative).
example(e253,f7,positive).
example(e253,f8,positive).
example(e253,f9,negative).
example(e253,f10,negative).
example(e253,f11,negative).
example(e253,f12,positive).
example(e253,f13,negative).
example(e253,f14,negative).
example(e253,f15,negative).
example(e253,f16,negative).
example(e253,f17,negative).
example(e253,f18,negative).
example(e253,f19,negative).
example(e253,f20,negative).
example(e253,f21,negative).
example(e253,f22,negative).
example(e253,f23,negative).
example(e253,f24,negative).
example(e253,f25,negative).
example(e253,f26,negative).
example(e253,f27,positive).
example(e253,f28,negative).
example(e253,f29,negative).
example(e253,f30,positive).
example(e253,f31,positive).
example(e253,f32,positive).
example(e253,f33,positive).
example(e253,f34,negative).
example(e254,f1,negative).
example(e254,f2,negative).
example(e254,f3,negative).
example(e254,f4,positive).
example(e254,f5,negative).
example(e254,f6,positive).
example(e254,f7,positive).
example(e254,f8,positive).
example(e254,f9,negative).
example(e254,f10,negative).
example(e254,f11,negative).
example(e254,f12,negative).
example(e254,f13,negative).
example(e254,f14,negative).
example(e254,f15,negative).
example(e254,f16,negative).
example(e254,f17,negative).
example(e254,f18,negative).
example(e254,f19,negative).
example(e254,f20,negative).
example(e254,f21,negative).
example(e254,f22,positive).
example(e254,f23,negative).
example(e254,f24,negative).
example(e254,f25,positive).
example(e254,f26,negative).
example(e254,f27,negative).
example(e254,f28,negative).
example(e254,f29,negative).
example(e254,f30,negative).
example(e254,f31,negative).
example(e254,f32,negative).
example(e254,f33,positive).
example(e254,f34,negative).
example(e255,f1,negative).
example(e255,f2,negative).
example(e255,f3,negative).
example(e255,f4,positive).
example(e255,f5,negative).
example(e255,f6,negative).
example(e255,f7,negative).
example(e255,f8,positive).
example(e255,f9,negative).
example(e255,f10,negative).
example(e255,f11,positive).
example(e255,f12,negative).
example(e255,f13,negative).
example(e255,f14,negative).
example(e255,f15,negative).
example(e255,f16,negative).
example(e255,f17,negative).
example(e255,f18,negative).
example(e255,f19,negative).
example(e255,f20,negative).
example(e255,f21,negative).
example(e255,f22,negative).
example(e255,f23,negative).
example(e255,f24,negative).
example(e255,f25,negative).
example(e255,f26,negative).
example(e255,f27,negative).
example(e255,f28,positive).
example(e255,f29,negative).
example(e255,f30,positive).
example(e255,f31,negative).
example(e255,f32,negative).
example(e255,f33,positive).
example(e255,f34,negative).
example(e256,f1,negative).
example(e256,f2,negative).
example(e256,f3,negative).
example(e256,f4,negative).
example(e256,f5,negative).
example(e256,f6,negative).
example(e256,f7,positive).
example(e256,f8,positive).
example(e256,f9,negative).
example(e256,f10,negative).
example(e256,f11,negative).
example(e256,f12,negative).
example(e256,f13,negative).
example(e256,f14,negative).
example(e256,f15,negative).
example(e256,f16,negative).
example(e256,f17,negative).
example(e256,f18,negative).
example(e256,f19,negative).
example(e256,f20,negative).
example(e256,f21,positive).
example(e256,f22,negative).
example(e256,f23,negative).
example(e256,f24,negative).
example(e256,f25,positive).
example(e256,f26,negative).
example(e256,f27,negative).
example(e256,f28,negative).
example(e256,f29,negative).
example(e256,f30,positive).
example(e256,f31,positive).
example(e256,f32,negative).
example(e256,f33,positive).
example(e256,f34,negative).
example(e257,f1,negative).
example(e257,f2,negative).
example(e257,f3,negative).
example(e257,f4,positive).
example(e257,f5,negative).
example(e257,f6,positive).
example(e257,f7,positive).
example(e257,f8,negative).
example(e257,f9,negative).
example(e257,f10,negative).
example(e257,f11,negative).
example(e257,f12,negative).
example(e257,f13,negative).
example(e257,f14,negative).
example(e257,f15,positive).
example(e257,f16,negative).
example(e257,f17,negative).
example(e257,f18,negative).
example(e257,f19,negative).
example(e257,f20,negative).
example(e257,f21,negative).
example(e257,f22,negative).
example(e257,f23,negative).
example(e257,f24,negative).
example(e257,f25,positive).
example(e257,f26,negative).
example(e257,f27,negative).
example(e257,f28,negative).
example(e257,f29,negative).
example(e257,f30,negative).
example(e257,f31,negative).
example(e257,f32,positive).
example(e257,f33,positive).
example(e257,f34,negative).
example(e258,f1,negative).
example(e258,f2,negative).
example(e258,f3,negative).
example(e258,f4,positive).
example(e258,f5,negative).
example(e258,f6,positive).
example(e258,f7,positive).
example(e258,f8,positive).
example(e258,f9,negative).
example(e258,f10,negative).
example(e258,f11,negative).
example(e258,f12,negative).
example(e258,f13,negative).
example(e258,f14,negative).
example(e258,f15,negative).
example(e258,f16,negative).
example(e258,f17,negative).
example(e258,f18,negative).
example(e258,f19,negative).
example(e258,f20,positive).
example(e258,f21,negative).
example(e258,f22,negative).
example(e258,f23,negative).
example(e258,f24,negative).
example(e258,f25,positive).
example(e258,f26,negative).
example(e258,f27,negative).
example(e258,f28,negative).
example(e258,f29,negative).
example(e258,f30,positive).
example(e258,f31,negative).
example(e258,f32,positive).
example(e258,f33,positive).
example(e258,f34,negative).
example(e259,f1,negative).
example(e259,f2,negative).
example(e259,f3,negative).
example(e259,f4,positive).
example(e259,f5,negative).
example(e259,f6,positive).
example(e259,f7,positive).
example(e259,f8,positive).
example(e259,f9,negative).
example(e259,f10,negative).
example(e259,f11,negative).
example(e259,f12,negative).
example(e259,f13,negative).
example(e259,f14,negative).
example(e259,f15,negative).
example(e259,f16,negative).
example(e259,f17,negative).
example(e259,f18,negative).
example(e259,f19,negative).
example(e259,f20,positive).
example(e259,f21,negative).
example(e259,f22,negative).
example(e259,f23,negative).
example(e259,f24,negative).
example(e259,f25,positive).
example(e259,f26,negative).
example(e259,f27,negative).
example(e259,f28,negative).
example(e259,f29,negative).
example(e259,f30,negative).
example(e259,f31,negative).
example(e259,f32,positive).
example(e259,f33,negative).
example(e259,f34,negative).
example(e260,f1,negative).
example(e260,f2,negative).
example(e260,f3,negative).
example(e260,f4,positive).
example(e260,f5,positive).
example(e260,f6,positive).
example(e260,f7,positive).
example(e260,f8,positive).
example(e260,f9,negative).
example(e260,f10,negative).
example(e260,f11,negative).
example(e260,f12,negative).
example(e260,f13,negative).
example(e260,f14,negative).
example(e260,f15,negative).
example(e260,f16,negative).
example(e260,f17,negative).
example(e260,f18,negative).
example(e260,f19,negative).
example(e260,f20,negative).
example(e260,f21,positive).
example(e260,f22,negative).
example(e260,f23,negative).
example(e260,f24,negative).
example(e260,f25,negative).
example(e260,f26,negative).
example(e260,f27,negative).
example(e260,f28,positive).
example(e260,f29,negative).
example(e260,f30,negative).
example(e260,f31,negative).
example(e260,f32,positive).
example(e260,f33,positive).
example(e260,f34,negative).
example(e261,f1,negative).
example(e261,f2,negative).
example(e261,f3,negative).
example(e261,f4,negative).
example(e261,f5,negative).
example(e261,f6,negative).
example(e261,f7,positive).
example(e261,f8,positive).
example(e261,f9,negative).
example(e261,f10,negative).
example(e261,f11,negative).
example(e261,f12,negative).
example(e261,f13,negative).
example(e261,f14,negative).
example(e261,f15,negative).
example(e261,f16,negative).
example(e261,f17,negative).
example(e261,f18,negative).
example(e261,f19,positive).
example(e261,f20,negative).
example(e261,f21,negative).
example(e261,f22,negative).
example(e261,f23,negative).
example(e261,f24,negative).
example(e261,f25,positive).
example(e261,f26,negative).
example(e261,f27,negative).
example(e261,f28,negative).
example(e261,f29,negative).
example(e261,f30,negative).
example(e261,f31,positive).
example(e261,f32,negative).
example(e261,f33,positive).
example(e261,f34,negative).
example(e262,f1,negative).
example(e262,f2,negative).
example(e262,f3,negative).
example(e262,f4,positive).
example(e262,f5,negative).
example(e262,f6,positive).
example(e262,f7,positive).
example(e262,f8,positive).
example(e262,f9,negative).
example(e262,f10,negative).
example(e262,f11,positive).
example(e262,f12,negative).
example(e262,f13,negative).
example(e262,f14,negative).
example(e262,f15,negative).
example(e262,f16,negative).
example(e262,f17,negative).
example(e262,f18,negative).
example(e262,f19,negative).
example(e262,f20,negative).
example(e262,f21,negative).
example(e262,f22,negative).
example(e262,f23,negative).
example(e262,f24,negative).
example(e262,f25,negative).
example(e262,f26,negative).
example(e262,f27,negative).
example(e262,f28,positive).
example(e262,f29,negative).
example(e262,f30,positive).
example(e262,f31,negative).
example(e262,f32,negative).
example(e262,f33,positive).
example(e262,f34,negative).
example(e263,f1,negative).
example(e263,f2,negative).
example(e263,f3,negative).
example(e263,f4,positive).
example(e263,f5,negative).
example(e263,f6,positive).
example(e263,f7,negative).
example(e263,f8,positive).
example(e263,f9,negative).
example(e263,f10,negative).
example(e263,f11,negative).
example(e263,f12,negative).
example(e263,f13,negative).
example(e263,f14,negative).
example(e263,f15,negative).
example(e263,f16,negative).
example(e263,f17,negative).
example(e263,f18,negative).
example(e263,f19,negative).
example(e263,f20,negative).
example(e263,f21,positive).
example(e263,f22,negative).
example(e263,f23,negative).
example(e263,f24,negative).
example(e263,f25,positive).
example(e263,f26,negative).
example(e263,f27,negative).
example(e263,f28,negative).
example(e263,f29,negative).
example(e263,f30,negative).
example(e263,f31,negative).
example(e263,f32,positive).
example(e263,f33,positive).
example(e263,f34,negative).
example(e264,f1,negative).
example(e264,f2,negative).
example(e264,f3,negative).
example(e264,f4,positive).
example(e264,f5,negative).
example(e264,f6,positive).
example(e264,f7,negative).
example(e264,f8,negative).
example(e264,f9,negative).
example(e264,f10,negative).
example(e264,f11,negative).
example(e264,f12,negative).
example(e264,f13,negative).
example(e264,f14,negative).
example(e264,f15,negative).
example(e264,f16,negative).
example(e264,f17,negative).
example(e264,f18,negative).
example(e264,f19,positive).
example(e264,f20,negative).
example(e264,f21,negative).
example(e264,f22,negative).
example(e264,f23,negative).
example(e264,f24,negative).
example(e264,f25,positive).
example(e264,f26,negative).
example(e264,f27,negative).
example(e264,f28,negative).
example(e264,f29,negative).
example(e264,f30,positive).
example(e264,f31,negative).
example(e264,f32,positive).
example(e264,f33,positive).
example(e264,f34,negative).
example(e265,f1,negative).
example(e265,f2,negative).
example(e265,f3,negative).
example(e265,f4,negative).
example(e265,f5,negative).
example(e265,f6,negative).
example(e265,f7,positive).
example(e265,f8,negative).
example(e265,f9,negative).
example(e265,f10,negative).
example(e265,f11,negative).
example(e265,f12,negative).
example(e265,f13,negative).
example(e265,f14,negative).
example(e265,f15,negative).
example(e265,f16,negative).
example(e265,f17,negative).
example(e265,f18,negative).
example(e265,f19,negative).
example(e265,f20,negative).
example(e265,f21,negative).
example(e265,f22,positive).
example(e265,f23,negative).
example(e265,f24,negative).
example(e265,f25,positive).
example(e265,f26,negative).
example(e265,f27,negative).
example(e265,f28,negative).
example(e265,f29,negative).
example(e265,f30,positive).
example(e265,f31,positive).
example(e265,f32,negative).
example(e265,f33,positive).
example(e265,f34,negative).
example(e266,f1,negative).
example(e266,f2,negative).
example(e266,f3,negative).
example(e266,f4,negative).
example(e266,f5,negative).
example(e266,f6,negative).
example(e266,f7,negative).
example(e266,f8,positive).
example(e266,f9,negative).
example(e266,f10,negative).
example(e266,f11,negative).
example(e266,f12,negative).
example(e266,f13,negative).
example(e266,f14,negative).
example(e266,f15,negative).
example(e266,f16,negative).
example(e266,f17,negative).
example(e266,f18,negative).
example(e266,f19,negative).
example(e266,f20,negative).
example(e266,f21,positive).
example(e266,f22,negative).
example(e266,f23,negative).
example(e266,f24,negative).
example(e266,f25,positive).
example(e266,f26,negative).
example(e266,f27,negative).
example(e266,f28,negative).
example(e266,f29,negative).
example(e266,f30,negative).
example(e266,f31,positive).
example(e266,f32,positive).
example(e266,f33,positive).
example(e266,f34,negative).
example(e267,f1,negative).
example(e267,f2,negative).
example(e267,f3,negative).
example(e267,f4,negative).
example(e267,f5,negative).
example(e267,f6,negative).
example(e267,f7,positive).
example(e267,f8,positive).
example(e267,f9,negative).
example(e267,f10,negative).
example(e267,f11,negative).
example(e267,f12,negative).
example(e267,f13,negative).
example(e267,f14,negative).
example(e267,f15,negative).
example(e267,f16,negative).
example(e267,f17,negative).
example(e267,f18,negative).
example(e267,f19,negative).
example(e267,f20,negative).
example(e267,f21,positive).
example(e267,f22,negative).
example(e267,f23,negative).
example(e267,f24,negative).
example(e267,f25,positive).
example(e267,f26,negative).
example(e267,f27,negative).
example(e267,f28,negative).
example(e267,f29,negative).
example(e267,f30,negative).
example(e267,f31,positive).
example(e267,f32,positive).
example(e267,f33,positive).
example(e267,f34,negative).
example(e268,f1,negative).
example(e268,f2,negative).
example(e268,f3,negative).
example(e268,f4,negative).
example(e268,f5,negative).
example(e268,f6,negative).
example(e268,f7,positive).
example(e268,f8,positive).
example(e268,f9,negative).
example(e268,f10,negative).
example(e268,f11,negative).
example(e268,f12,negative).
example(e268,f13,positive).
example(e268,f14,negative).
example(e268,f15,negative).
example(e268,f16,negative).
example(e268,f17,negative).
example(e268,f18,negative).
example(e268,f19,negative).
example(e268,f20,negative).
example(e268,f21,negative).
example(e268,f22,negative).
example(e268,f23,negative).
example(e268,f24,negative).
example(e268,f25,positive).
example(e268,f26,negative).
example(e268,f27,negative).
example(e268,f28,negative).
example(e268,f29,negative).
example(e268,f30,positive).
example(e268,f31,positive).
example(e268,f32,positive).
example(e268,f33,positive).
example(e268,f34,negative).
example(e269,f1,negative).
example(e269,f2,negative).
example(e269,f3,negative).
example(e269,f4,positive).
example(e269,f5,negative).
example(e269,f6,positive).
example(e269,f7,positive).
example(e269,f8,positive).
example(e269,f9,negative).
example(e269,f10,negative).
example(e269,f11,negative).
example(e269,f12,negative).
example(e269,f13,negative).
example(e269,f14,negative).
example(e269,f15,negative).
example(e269,f16,positive).
example(e269,f17,negative).
example(e269,f18,negative).
example(e269,f19,negative).
example(e269,f20,negative).
example(e269,f21,negative).
example(e269,f22,negative).
example(e269,f23,negative).
example(e269,f24,negative).
example(e269,f25,positive).
example(e269,f26,negative).
example(e269,f27,negative).
example(e269,f28,negative).
example(e269,f29,negative).
example(e269,f30,negative).
example(e269,f31,negative).
example(e269,f32,positive).
example(e269,f33,positive).
example(e269,f34,negative).
example(e270,f1,negative).
example(e270,f2,negative).
example(e270,f3,negative).
example(e270,f4,positive).
example(e270,f5,negative).
example(e270,f6,positive).
example(e270,f7,positive).
example(e270,f8,positive).
example(e270,f9,negative).
example(e270,f10,negative).
example(e270,f11,negative).
example(e270,f12,negative).
example(e270,f13,negative).
example(e270,f14,negative).
example(e270,f15,negative).
example(e270,f16,negative).
example(e270,f17,negative).
example(e270,f18,negative).
example(e270,f19,positive).
example(e270,f20,negative).
example(e270,f21,negative).
example(e270,f22,negative).
example(e270,f23,negative).
example(e270,f24,negative).
example(e270,f25,positive).
example(e270,f26,negative).
example(e270,f27,negative).
example(e270,f28,negative).
example(e270,f29,negative).
example(e270,f30,negative).
example(e270,f31,negative).
example(e270,f32,positive).
example(e270,f33,positive).
example(e270,f34,negative).
example(e271,f1,negative).
example(e271,f2,negative).
example(e271,f3,negative).
example(e271,f4,positive).
example(e271,f5,negative).
example(e271,f6,negative).
example(e271,f7,negative).
example(e271,f8,positive).
example(e271,f9,negative).
example(e271,f10,negative).
example(e271,f11,negative).
example(e271,f12,negative).
example(e271,f13,negative).
example(e271,f14,negative).
example(e271,f15,negative).
example(e271,f16,positive).
example(e271,f17,negative).
example(e271,f18,negative).
example(e271,f19,negative).
example(e271,f20,negative).
example(e271,f21,negative).
example(e271,f22,negative).
example(e271,f23,negative).
example(e271,f24,negative).
example(e271,f25,negative).
example(e271,f26,negative).
example(e271,f27,negative).
example(e271,f28,positive).
example(e271,f29,negative).
example(e271,f30,negative).
example(e271,f31,negative).
example(e271,f32,negative).
example(e271,f33,positive).
example(e271,f34,negative).
example(e272,f1,negative).
example(e272,f2,negative).
example(e272,f3,negative).
example(e272,f4,positive).
example(e272,f5,negative).
example(e272,f6,positive).
example(e272,f7,positive).
example(e272,f8,positive).
example(e272,f9,negative).
example(e272,f10,negative).
example(e272,f11,negative).
example(e272,f12,negative).
example(e272,f13,negative).
example(e272,f14,negative).
example(e272,f15,negative).
example(e272,f16,negative).
example(e272,f17,negative).
example(e272,f18,negative).
example(e272,f19,negative).
example(e272,f20,negative).
example(e272,f21,positive).
example(e272,f22,negative).
example(e272,f23,negative).
example(e272,f24,negative).
example(e272,f25,positive).
example(e272,f26,negative).
example(e272,f27,negative).
example(e272,f28,negative).
example(e272,f29,negative).
example(e272,f30,positive).
example(e272,f31,negative).
example(e272,f32,negative).
example(e272,f33,negative).
example(e272,f34,negative).
example(e273,f1,negative).
example(e273,f2,negative).
example(e273,f3,negative).
example(e273,f4,positive).
example(e273,f5,negative).
example(e273,f6,positive).
example(e273,f7,positive).
example(e273,f8,positive).
example(e273,f9,negative).
example(e273,f10,negative).
example(e273,f11,negative).
example(e273,f12,negative).
example(e273,f13,negative).
example(e273,f14,negative).
example(e273,f15,negative).
example(e273,f16,negative).
example(e273,f17,negative).
example(e273,f18,negative).
example(e273,f19,negative).
example(e273,f20,negative).
example(e273,f21,positive).
example(e273,f22,negative).
example(e273,f23,negative).
example(e273,f24,negative).
example(e273,f25,positive).
example(e273,f26,negative).
example(e273,f27,negative).
example(e273,f28,negative).
example(e273,f29,negative).
example(e273,f30,negative).
example(e273,f31,negative).
example(e273,f32,negative).
example(e273,f33,positive).
example(e273,f34,negative).
example(e274,f1,negative).
example(e274,f2,negative).
example(e274,f3,negative).
example(e274,f4,negative).
example(e274,f5,negative).
example(e274,f6,negative).
example(e274,f7,negative).
example(e274,f8,positive).
example(e274,f9,negative).
example(e274,f10,negative).
example(e274,f11,positive).
example(e274,f12,negative).
example(e274,f13,negative).
example(e274,f14,negative).
example(e274,f15,negative).
example(e274,f16,negative).
example(e274,f17,negative).
example(e274,f18,negative).
example(e274,f19,negative).
example(e274,f20,negative).
example(e274,f21,negative).
example(e274,f22,negative).
example(e274,f23,negative).
example(e274,f24,negative).
example(e274,f25,positive).
example(e274,f26,negative).
example(e274,f27,negative).
example(e274,f28,negative).
example(e274,f29,negative).
example(e274,f30,negative).
example(e274,f31,positive).
example(e274,f32,negative).
example(e274,f33,positive).
example(e274,f34,negative).
example(e275,f1,negative).
example(e275,f2,negative).
example(e275,f3,negative).
example(e275,f4,negative).
example(e275,f5,negative).
example(e275,f6,negative).
example(e275,f7,positive).
example(e275,f8,positive).
example(e275,f9,negative).
example(e275,f10,negative).
example(e275,f11,negative).
example(e275,f12,negative).
example(e275,f13,negative).
example(e275,f14,negative).
example(e275,f15,negative).
example(e275,f16,negative).
example(e275,f17,negative).
example(e275,f18,negative).
example(e275,f19,negative).
example(e275,f20,negative).
example(e275,f21,negative).
example(e275,f22,positive).
example(e275,f23,negative).
example(e275,f24,negative).
example(e275,f25,positive).
example(e275,f26,negative).
example(e275,f27,negative).
example(e275,f28,negative).
example(e275,f29,negative).
example(e275,f30,positive).
example(e275,f31,positive).
example(e275,f32,negative).
example(e275,f33,positive).
example(e275,f34,negative).
example(e276,f1,negative).
example(e276,f2,negative).
example(e276,f3,negative).
example(e276,f4,positive).
example(e276,f5,negative).
example(e276,f6,positive).
example(e276,f7,positive).
example(e276,f8,negative).
example(e276,f9,negative).
example(e276,f10,negative).
example(e276,f11,negative).
example(e276,f12,negative).
example(e276,f13,negative).
example(e276,f14,negative).
example(e276,f15,negative).
example(e276,f16,positive).
example(e276,f17,negative).
example(e276,f18,negative).
example(e276,f19,negative).
example(e276,f20,negative).
example(e276,f21,negative).
example(e276,f22,negative).
example(e276,f23,negative).
example(e276,f24,negative).
example(e276,f25,negative).
example(e276,f26,positive).
example(e276,f27,negative).
example(e276,f28,negative).
example(e276,f29,negative).
example(e276,f30,negative).
example(e276,f31,negative).
example(e276,f32,positive).
example(e276,f33,positive).
example(e276,f34,negative).
example(e277,f1,negative).
example(e277,f2,negative).
example(e277,f3,negative).
example(e277,f4,positive).
example(e277,f5,negative).
example(e277,f6,negative).
example(e277,f7,negative).
example(e277,f8,positive).
example(e277,f9,negative).
example(e277,f10,negative).
example(e277,f11,negative).
example(e277,f12,negative).
example(e277,f13,negative).
example(e277,f14,negative).
example(e277,f15,negative).
example(e277,f16,positive).
example(e277,f17,negative).
example(e277,f18,negative).
example(e277,f19,negative).
example(e277,f20,negative).
example(e277,f21,negative).
example(e277,f22,negative).
example(e277,f23,negative).
example(e277,f24,negative).
example(e277,f25,negative).
example(e277,f26,positive).
example(e277,f27,negative).
example(e277,f28,negative).
example(e277,f29,negative).
example(e277,f30,positive).
example(e277,f31,negative).
example(e277,f32,positive).
example(e277,f33,positive).
example(e277,f34,negative).
example(e278,f1,negative).
example(e278,f2,negative).
example(e278,f3,negative).
example(e278,f4,positive).
example(e278,f5,negative).
example(e278,f6,positive).
example(e278,f7,positive).
example(e278,f8,positive).
example(e278,f9,negative).
example(e278,f10,negative).
example(e278,f11,negative).
example(e278,f12,negative).
example(e278,f13,negative).
example(e278,f14,negative).
example(e278,f15,negative).
example(e278,f16,negative).
example(e278,f17,negative).
example(e278,f18,negative).
example(e278,f19,negative).
example(e278,f20,positive).
example(e278,f21,negative).
example(e278,f22,negative).
example(e278,f23,negative).
example(e278,f24,negative).
example(e278,f25,positive).
example(e278,f26,negative).
example(e278,f27,negative).
example(e278,f28,negative).
example(e278,f29,negative).
example(e278,f30,positive).
example(e278,f31,negative).
example(e278,f32,negative).
example(e278,f33,negative).
example(e278,f34,negative).
example(e279,f1,negative).
example(e279,f2,negative).
example(e279,f3,negative).
example(e279,f4,negative).
example(e279,f5,negative).
example(e279,f6,negative).
example(e279,f7,positive).
example(e279,f8,positive).
example(e279,f9,negative).
example(e279,f10,negative).
example(e279,f11,negative).
example(e279,f12,negative).
example(e279,f13,positive).
example(e279,f14,negative).
example(e279,f15,negative).
example(e279,f16,negative).
example(e279,f17,negative).
example(e279,f18,negative).
example(e279,f19,negative).
example(e279,f20,negative).
example(e279,f21,negative).
example(e279,f22,negative).
example(e279,f23,negative).
example(e279,f24,negative).
example(e279,f25,negative).
example(e279,f26,negative).
example(e279,f27,negative).
example(e279,f28,positive).
example(e279,f29,negative).
example(e279,f30,positive).
example(e279,f31,positive).
example(e279,f32,negative).
example(e279,f33,positive).
example(e279,f34,negative).
example(e280,f1,negative).
example(e280,f2,negative).
example(e280,f3,negative).
example(e280,f4,negative).
example(e280,f5,negative).
example(e280,f6,negative).
example(e280,f7,positive).
example(e280,f8,positive).
example(e280,f9,negative).
example(e280,f10,negative).
example(e280,f11,negative).
example(e280,f12,negative).
example(e280,f13,negative).
example(e280,f14,negative).
example(e280,f15,negative).
example(e280,f16,negative).
example(e280,f17,negative).
example(e280,f18,negative).
example(e280,f19,negative).
example(e280,f20,negative).
example(e280,f21,negative).
example(e280,f22,positive).
example(e280,f23,negative).
example(e280,f24,negative).
example(e280,f25,positive).
example(e280,f26,negative).
example(e280,f27,negative).
example(e280,f28,negative).
example(e280,f29,negative).
example(e280,f30,positive).
example(e280,f31,positive).
example(e280,f32,negative).
example(e280,f33,positive).
example(e280,f34,negative).
example(e281,f1,negative).
example(e281,f2,negative).
example(e281,f3,negative).
example(e281,f4,positive).
example(e281,f5,negative).
example(e281,f6,negative).
example(e281,f7,positive).
example(e281,f8,positive).
example(e281,f9,negative).
example(e281,f10,negative).
example(e281,f11,negative).
example(e281,f12,negative).
example(e281,f13,negative).
example(e281,f14,negative).
example(e281,f15,negative).
example(e281,f16,positive).
example(e281,f17,negative).
example(e281,f18,negative).
example(e281,f19,negative).
example(e281,f20,negative).
example(e281,f21,negative).
example(e281,f22,negative).
example(e281,f23,negative).
example(e281,f24,negative).
example(e281,f25,negative).
example(e281,f26,positive).
example(e281,f27,negative).
example(e281,f28,negative).
example(e281,f29,negative).
example(e281,f30,negative).
example(e281,f31,negative).
example(e281,f32,positive).
example(e281,f33,positive).
example(e281,f34,negative).
example(e282,f1,negative).
example(e282,f2,negative).
example(e282,f3,positive).
example(e282,f4,positive).
example(e282,f5,negative).
example(e282,f6,positive).
example(e282,f7,positive).
example(e282,f8,negative).
example(e282,f9,negative).
example(e282,f10,positive).
example(e282,f11,negative).
example(e282,f12,negative).
example(e282,f13,negative).
example(e282,f14,negative).
example(e282,f15,negative).
example(e282,f16,negative).
example(e282,f17,negative).
example(e282,f18,negative).
example(e282,f19,negative).
example(e282,f20,negative).
example(e282,f21,negative).
example(e282,f22,negative).
example(e282,f23,positive).
example(e282,f24,negative).
example(e282,f25,negative).
example(e282,f26,negative).
example(e282,f27,negative).
example(e282,f28,negative).
example(e282,f29,negative).
example(e282,f30,negative).
example(e282,f31,negative).
example(e282,f32,negative).
example(e282,f33,positive).
example(e282,f34,negative).
example(e283,f1,negative).
example(e283,f2,negative).
example(e283,f3,negative).
example(e283,f4,positive).
example(e283,f5,negative).
example(e283,f6,positive).
example(e283,f7,positive).
example(e283,f8,positive).
example(e283,f9,negative).
example(e283,f10,negative).
example(e283,f11,negative).
example(e283,f12,negative).
example(e283,f13,negative).
example(e283,f14,negative).
example(e283,f15,negative).
example(e283,f16,negative).
example(e283,f17,negative).
example(e283,f18,negative).
example(e283,f19,negative).
example(e283,f20,positive).
example(e283,f21,negative).
example(e283,f22,negative).
example(e283,f23,negative).
example(e283,f24,negative).
example(e283,f25,positive).
example(e283,f26,negative).
example(e283,f27,negative).
example(e283,f28,negative).
example(e283,f29,negative).
example(e283,f30,positive).
example(e283,f31,negative).
example(e283,f32,negative).
example(e283,f33,negative).
example(e283,f34,negative).
example(e284,f1,negative).
example(e284,f2,negative).
example(e284,f3,negative).
example(e284,f4,positive).
example(e284,f5,negative).
example(e284,f6,negative).
example(e284,f7,positive).
example(e284,f8,positive).
example(e284,f9,negative).
example(e284,f10,negative).
example(e284,f11,negative).
example(e284,f12,negative).
example(e284,f13,negative).
example(e284,f14,negative).
example(e284,f15,negative).
example(e284,f16,negative).
example(e284,f17,positive).
example(e284,f18,negative).
example(e284,f19,negative).
example(e284,f20,negative).
example(e284,f21,negative).
example(e284,f22,negative).
example(e284,f23,negative).
example(e284,f24,negative).
example(e284,f25,positive).
example(e284,f26,negative).
example(e284,f27,negative).
example(e284,f28,negative).
example(e284,f29,negative).
example(e284,f30,negative).
example(e284,f31,negative).
example(e284,f32,positive).
example(e284,f33,positive).
example(e284,f34,negative).
example(e285,f1,negative).
example(e285,f2,negative).
example(e285,f3,negative).
example(e285,f4,positive).
example(e285,f5,negative).
example(e285,f6,positive).
example(e285,f7,positive).
example(e285,f8,negative).
example(e285,f9,negative).
example(e285,f10,negative).
example(e285,f11,negative).
example(e285,f12,negative).
example(e285,f13,negative).
example(e285,f14,negative).
example(e285,f15,negative).
example(e285,f16,negative).
example(e285,f17,negative).
example(e285,f18,negative).
example(e285,f19,positive).
example(e285,f20,negative).
example(e285,f21,negative).
example(e285,f22,negative).
example(e285,f23,negative).
example(e285,f24,negative).
example(e285,f25,positive).
example(e285,f26,negative).
example(e285,f27,negative).
example(e285,f28,negative).
example(e285,f29,negative).
example(e285,f30,negative).
example(e285,f31,negative).
example(e285,f32,positive).
example(e285,f33,positive).
example(e285,f34,negative).
example(e286,f1,negative).
example(e286,f2,negative).
example(e286,f3,negative).
example(e286,f4,negative).
example(e286,f5,negative).
example(e286,f6,negative).
example(e286,f7,positive).
example(e286,f8,positive).
example(e286,f9,negative).
example(e286,f10,negative).
example(e286,f11,negative).
example(e286,f12,negative).
example(e286,f13,negative).
example(e286,f14,positive).
example(e286,f15,negative).
example(e286,f16,negative).
example(e286,f17,negative).
example(e286,f18,negative).
example(e286,f19,negative).
example(e286,f20,negative).
example(e286,f21,negative).
example(e286,f22,negative).
example(e286,f23,negative).
example(e286,f24,negative).
example(e286,f25,positive).
example(e286,f26,negative).
example(e286,f27,negative).
example(e286,f28,negative).
example(e286,f29,negative).
example(e286,f30,positive).
example(e286,f31,positive).
example(e286,f32,positive).
example(e286,f33,positive).
example(e286,f34,negative).
example(e287,f1,negative).
example(e287,f2,negative).
example(e287,f3,negative).
example(e287,f4,negative).
example(e287,f5,negative).
example(e287,f6,positive).
example(e287,f7,positive).
example(e287,f8,positive).
example(e287,f9,negative).
example(e287,f10,positive).
example(e287,f11,negative).
example(e287,f12,negative).
example(e287,f13,negative).
example(e287,f14,negative).
example(e287,f15,negative).
example(e287,f16,negative).
example(e287,f17,negative).
example(e287,f18,negative).
example(e287,f19,negative).
example(e287,f20,negative).
example(e287,f21,negative).
example(e287,f22,negative).
example(e287,f23,negative).
example(e287,f24,negative).
example(e287,f25,negative).
example(e287,f26,negative).
example(e287,f27,negative).
example(e287,f28,negative).
example(e287,f29,positive).
example(e287,f30,positive).
example(e287,f31,positive).
example(e287,f32,positive).
example(e287,f33,positive).
example(e287,f34,negative).
example(e288,f1,negative).
example(e288,f2,positive).
example(e288,f3,negative).
example(e288,f4,positive).
example(e288,f5,positive).
example(e288,f6,positive).
example(e288,f7,positive).
example(e288,f8,positive).
example(e288,f9,negative).
example(e288,f10,negative).
example(e288,f11,negative).
example(e288,f12,negative).
example(e288,f13,negative).
example(e288,f14,negative).
example(e288,f15,negative).
example(e288,f16,negative).
example(e288,f17,negative).
example(e288,f18,negative).
example(e288,f19,negative).
example(e288,f20,negative).
example(e288,f21,positive).
example(e288,f22,negative).
example(e288,f23,negative).
example(e288,f24,negative).
example(e288,f25,negative).
example(e288,f26,positive).
example(e288,f27,negative).
example(e288,f28,negative).
example(e288,f29,negative).
example(e288,f30,positive).
example(e288,f31,negative).
example(e288,f32,negative).
example(e288,f33,positive).
example(e288,f34,negative).
example(e289,f1,negative).
example(e289,f2,negative).
example(e289,f3,positive).
example(e289,f4,negative).
example(e289,f5,negative).
example(e289,f6,negative).
example(e289,f7,positive).
example(e289,f8,positive).
example(e289,f9,negative).
example(e289,f10,negative).
example(e289,f11,negative).
example(e289,f12,negative).
example(e289,f13,negative).
example(e289,f14,negative).
example(e289,f15,negative).
example(e289,f16,negative).
example(e289,f17,negative).
example(e289,f18,negative).
example(e289,f19,negative).
example(e289,f20,negative).
example(e289,f21,negative).
example(e289,f22,negative).
example(e289,f23,negative).
example(e289,f24,negative).
example(e289,f25,negative).
example(e289,f26,negative).
example(e289,f27,negative).
example(e289,f28,negative).
example(e289,f29,negative).
example(e289,f30,negative).
example(e289,f31,positive).
example(e289,f32,negative).
example(e289,f33,positive).
example(e289,f34,negative).
example(e290,f1,negative).
example(e290,f2,negative).
example(e290,f3,positive).
example(e290,f4,positive).
example(e290,f5,negative).
example(e290,f6,positive).
example(e290,f7,negative).
example(e290,f8,positive).
example(e290,f9,negative).
example(e290,f10,negative).
example(e290,f11,negative).
example(e290,f12,negative).
example(e290,f13,negative).
example(e290,f14,negative).
example(e290,f15,negative).
example(e290,f16,negative).
example(e290,f17,negative).
example(e290,f18,negative).
example(e290,f19,negative).
example(e290,f20,negative).
example(e290,f21,negative).
example(e290,f22,negative).
example(e290,f23,negative).
example(e290,f24,negative).
example(e290,f25,negative).
example(e290,f26,negative).
example(e290,f27,negative).
example(e290,f28,negative).
example(e290,f29,negative).
example(e290,f30,negative).
example(e290,f31,negative).
example(e290,f32,negative).
example(e290,f33,positive).
example(e290,f34,negative).
example(e291,f1,negative).
example(e291,f2,negative).
example(e291,f3,negative).
example(e291,f4,positive).
example(e291,f5,negative).
example(e291,f6,positive).
example(e291,f7,positive).
example(e291,f8,positive).
example(e291,f9,negative).
example(e291,f10,positive).
example(e291,f11,negative).
example(e291,f12,negative).
example(e291,f13,negative).
example(e291,f14,negative).
example(e291,f15,negative).
example(e291,f16,negative).
example(e291,f17,negative).
example(e291,f18,negative).
example(e291,f19,negative).
example(e291,f20,negative).
example(e291,f21,negative).
example(e291,f22,negative).
example(e291,f23,negative).
example(e291,f24,negative).
example(e291,f25,negative).
example(e291,f26,positive).
example(e291,f27,negative).
example(e291,f28,negative).
example(e291,f29,negative).
example(e291,f30,positive).
example(e291,f31,negative).
example(e291,f32,positive).
example(e291,f33,negative).
example(e291,f34,negative).
example(e292,f1,negative).
example(e292,f2,negative).
example(e292,f3,negative).
example(e292,f4,negative).
example(e292,f5,negative).
example(e292,f6,negative).
example(e292,f7,negative).
example(e292,f8,positive).
example(e292,f9,negative).
example(e292,f10,negative).
example(e292,f11,negative).
example(e292,f12,negative).
example(e292,f13,negative).
example(e292,f14,negative).
example(e292,f15,negative).
example(e292,f16,negative).
example(e292,f17,negative).
example(e292,f18,negative).
example(e292,f19,negative).
example(e292,f20,negative).
example(e292,f21,negative).
example(e292,f22,negative).
example(e292,f23,negative).
example(e292,f24,negative).
example(e292,f25,negative).
example(e292,f26,negative).
example(e292,f27,negative).
example(e292,f28,negative).
example(e292,f29,negative).
example(e292,f30,negative).
example(e292,f31,positive).
example(e292,f32,positive).
example(e292,f33,positive).
example(e292,f34,negative).
example(e293,f1,negative).
example(e293,f2,negative).
example(e293,f3,negative).
example(e293,f4,negative).
example(e293,f5,negative).
example(e293,f6,negative).
example(e293,f7,positive).
example(e293,f8,positive).
example(e293,f9,negative).
example(e293,f10,negative).
example(e293,f11,negative).
example(e293,f12,negative).
example(e293,f13,negative).
example(e293,f14,negative).
example(e293,f15,negative).
example(e293,f16,negative).
example(e293,f17,negative).
example(e293,f18,negative).
example(e293,f19,negative).
example(e293,f20,negative).
example(e293,f21,positive).
example(e293,f22,negative).
example(e293,f23,negative).
example(e293,f24,negative).
example(e293,f25,positive).
example(e293,f26,negative).
example(e293,f27,negative).
example(e293,f28,negative).
example(e293,f29,negative).
example(e293,f30,positive).
example(e293,f31,positive).
example(e293,f32,negative).
example(e293,f33,positive).
example(e293,f34,negative).
example(e294,f1,negative).
example(e294,f2,negative).
example(e294,f3,negative).
example(e294,f4,negative).
example(e294,f5,negative).
example(e294,f6,negative).
example(e294,f7,positive).
example(e294,f8,negative).
example(e294,f9,negative).
example(e294,f10,negative).
example(e294,f11,negative).
example(e294,f12,negative).
example(e294,f13,negative).
example(e294,f14,positive).
example(e294,f15,negative).
example(e294,f16,negative).
example(e294,f17,negative).
example(e294,f18,negative).
example(e294,f19,negative).
example(e294,f20,negative).
example(e294,f21,negative).
example(e294,f22,negative).
example(e294,f23,negative).
example(e294,f24,negative).
example(e294,f25,positive).
example(e294,f26,negative).
example(e294,f27,negative).
example(e294,f28,negative).
example(e294,f29,negative).
example(e294,f30,positive).
example(e294,f31,positive).
example(e294,f32,positive).
example(e294,f33,positive).
example(e294,f34,negative).
example(e295,f1,negative).
example(e295,f2,negative).
example(e295,f3,negative).
example(e295,f4,positive).
example(e295,f5,positive).
example(e295,f6,positive).
example(e295,f7,positive).
example(e295,f8,positive).
example(e295,f9,negative).
example(e295,f10,negative).
example(e295,f11,negative).
example(e295,f12,negative).
example(e295,f13,positive).
example(e295,f14,negative).
example(e295,f15,negative).
example(e295,f16,negative).
example(e295,f17,negative).
example(e295,f18,negative).
example(e295,f19,negative).
example(e295,f20,negative).
example(e295,f21,negative).
example(e295,f22,negative).
example(e295,f23,negative).
example(e295,f24,negative).
example(e295,f25,negative).
example(e295,f26,negative).
example(e295,f27,negative).
example(e295,f28,positive).
example(e295,f29,negative).
example(e295,f30,positive).
example(e295,f31,negative).
example(e295,f32,positive).
example(e295,f33,positive).
example(e295,f34,negative).
example(e296,f1,negative).
example(e296,f2,negative).
example(e296,f3,negative).
example(e296,f4,positive).
example(e296,f5,negative).
example(e296,f6,negative).
example(e296,f7,positive).
example(e296,f8,negative).
example(e296,f9,negative).
example(e296,f10,negative).
example(e296,f11,negative).
example(e296,f12,negative).
example(e296,f13,negative).
example(e296,f14,negative).
example(e296,f15,negative).
example(e296,f16,negative).
example(e296,f17,negative).
example(e296,f18,negative).
example(e296,f19,negative).
example(e296,f20,negative).
example(e296,f21,negative).
example(e296,f22,negative).
example(e296,f23,negative).
example(e296,f24,negative).
example(e296,f25,negative).
example(e296,f26,negative).
example(e296,f27,negative).
example(e296,f28,negative).
example(e296,f29,negative).
example(e296,f30,negative).
example(e296,f31,negative).
example(e296,f32,negative).
example(e296,f33,positive).
example(e296,f34,negative).
example(e297,f1,negative).
example(e297,f2,negative).
example(e297,f3,positive).
example(e297,f4,negative).
example(e297,f5,negative).
example(e297,f6,negative).
example(e297,f7,negative).
example(e297,f8,positive).
example(e297,f9,negative).
example(e297,f10,negative).
example(e297,f11,negative).
example(e297,f12,negative).
example(e297,f13,negative).
example(e297,f14,negative).
example(e297,f15,negative).
example(e297,f16,negative).
example(e297,f17,negative).
example(e297,f18,negative).
example(e297,f19,negative).
example(e297,f20,negative).
example(e297,f21,negative).
example(e297,f22,negative).
example(e297,f23,negative).
example(e297,f24,negative).
example(e297,f25,negative).
example(e297,f26,negative).
example(e297,f27,negative).
example(e297,f28,negative).
example(e297,f29,negative).
example(e297,f30,negative).
example(e297,f31,positive).
example(e297,f32,positive).
example(e297,f33,positive).
example(e297,f34,negative).
example(e298,f1,negative).
example(e298,f2,negative).
example(e298,f3,negative).
example(e298,f4,negative).
example(e298,f5,negative).
example(e298,f6,negative).
example(e298,f7,positive).
example(e298,f8,positive).
example(e298,f9,negative).
example(e298,f10,negative).
example(e298,f11,negative).
example(e298,f12,negative).
example(e298,f13,negative).
example(e298,f14,negative).
example(e298,f15,negative).
example(e298,f16,negative).
example(e298,f17,negative).
example(e298,f18,negative).
example(e298,f19,negative).
example(e298,f20,negative).
example(e298,f21,positive).
example(e298,f22,negative).
example(e298,f23,negative).
example(e298,f24,negative).
example(e298,f25,positive).
example(e298,f26,negative).
example(e298,f27,negative).
example(e298,f28,negative).
example(e298,f29,negative).
example(e298,f30,negative).
example(e298,f31,positive).
example(e298,f32,negative).
example(e298,f33,positive).
example(e298,f34,negative).
example(e299,f1,negative).
example(e299,f2,negative).
example(e299,f3,negative).
example(e299,f4,negative).
example(e299,f5,negative).
example(e299,f6,positive).
example(e299,f7,positive).
example(e299,f8,positive).
example(e299,f9,negative).
example(e299,f10,negative).
example(e299,f11,negative).
example(e299,f12,negative).
example(e299,f13,negative).
example(e299,f14,positive).
example(e299,f15,negative).
example(e299,f16,negative).
example(e299,f17,negative).
example(e299,f18,negative).
example(e299,f19,negative).
example(e299,f20,negative).
example(e299,f21,negative).
example(e299,f22,negative).
example(e299,f23,negative).
example(e299,f24,negative).
example(e299,f25,positive).
example(e299,f26,negative).
example(e299,f27,negative).
example(e299,f28,negative).
example(e299,f29,negative).
example(e299,f30,positive).
example(e299,f31,positive).
example(e299,f32,positive).
example(e299,f33,positive).
example(e299,f34,negative).
example(e300,f1,negative).
example(e300,f2,negative).
example(e300,f3,negative).
example(e300,f4,negative).
example(e300,f5,negative).
example(e300,f6,negative).
example(e300,f7,positive).
example(e300,f8,positive).
example(e300,f9,negative).
example(e300,f10,negative).
example(e300,f11,negative).
example(e300,f12,negative).
example(e300,f13,negative).
example(e300,f14,negative).
example(e300,f15,negative).
example(e300,f16,negative).
example(e300,f17,negative).
example(e300,f18,negative).
example(e300,f19,negative).
example(e300,f20,negative).
example(e300,f21,positive).
example(e300,f22,negative).
example(e300,f23,negative).
example(e300,f24,negative).
example(e300,f25,negative).
example(e300,f26,negative).
example(e300,f27,positive).
example(e300,f28,negative).
example(e300,f29,negative).
example(e300,f30,negative).
example(e300,f31,positive).
example(e300,f32,positive).
example(e300,f33,positive).
example(e300,f34,negative).
example(e301,f1,negative).
example(e301,f2,negative).
example(e301,f3,negative).
example(e301,f4,negative).
example(e301,f5,positive).
example(e301,f6,positive).
example(e301,f7,positive).
example(e301,f8,positive).
example(e301,f9,negative).
example(e301,f10,negative).
example(e301,f11,negative).
example(e301,f12,negative).
example(e301,f13,positive).
example(e301,f14,negative).
example(e301,f15,negative).
example(e301,f16,negative).
example(e301,f17,negative).
example(e301,f18,negative).
example(e301,f19,negative).
example(e301,f20,negative).
example(e301,f21,negative).
example(e301,f22,negative).
example(e301,f23,negative).
example(e301,f24,negative).
example(e301,f25,positive).
example(e301,f26,negative).
example(e301,f27,negative).
example(e301,f28,negative).
example(e301,f29,negative).
example(e301,f30,positive).
example(e301,f31,positive).
example(e301,f32,positive).
example(e301,f33,positive).
example(e301,f34,negative).
example(e302,f1,negative).
example(e302,f2,negative).
example(e302,f3,negative).
example(e302,f4,positive).
example(e302,f5,negative).
example(e302,f6,positive).
example(e302,f7,positive).
example(e302,f8,positive).
example(e302,f9,negative).
example(e302,f10,negative).
example(e302,f11,negative).
example(e302,f12,negative).
example(e302,f13,negative).
example(e302,f14,negative).
example(e302,f15,negative).
example(e302,f16,negative).
example(e302,f17,negative).
example(e302,f18,negative).
example(e302,f19,negative).
example(e302,f20,negative).
example(e302,f21,positive).
example(e302,f22,negative).
example(e302,f23,negative).
example(e302,f24,negative).
example(e302,f25,positive).
example(e302,f26,negative).
example(e302,f27,negative).
example(e302,f28,negative).
example(e302,f29,negative).
example(e302,f30,negative).
example(e302,f31,negative).
example(e302,f32,positive).
example(e302,f33,positive).
example(e302,f34,negative).
example(e303,f1,negative).
example(e303,f2,negative).
example(e303,f3,negative).
example(e303,f4,positive).
example(e303,f5,negative).
example(e303,f6,positive).
example(e303,f7,positive).
example(e303,f8,positive).
example(e303,f9,negative).
example(e303,f10,negative).
example(e303,f11,negative).
example(e303,f12,negative).
example(e303,f13,negative).
example(e303,f14,negative).
example(e303,f15,positive).
example(e303,f16,negative).
example(e303,f17,negative).
example(e303,f18,negative).
example(e303,f19,negative).
example(e303,f20,negative).
example(e303,f21,negative).
example(e303,f22,negative).
example(e303,f23,negative).
example(e303,f24,negative).
example(e303,f25,negative).
example(e303,f26,negative).
example(e303,f27,negative).
example(e303,f28,positive).
example(e303,f29,negative).
example(e303,f30,negative).
example(e303,f31,negative).
example(e303,f32,positive).
example(e303,f33,positive).
example(e303,f34,negative).
example(e304,f1,negative).
example(e304,f2,negative).
example(e304,f3,negative).
example(e304,f4,positive).
example(e304,f5,negative).
example(e304,f6,positive).
example(e304,f7,positive).
example(e304,f8,positive).
example(e304,f9,negative).
example(e304,f10,negative).
example(e304,f11,negative).
example(e304,f12,negative).
example(e304,f13,negative).
example(e304,f14,negative).
example(e304,f15,positive).
example(e304,f16,negative).
example(e304,f17,negative).
example(e304,f18,negative).
example(e304,f19,negative).
example(e304,f20,negative).
example(e304,f21,negative).
example(e304,f22,negative).
example(e304,f23,negative).
example(e304,f24,negative).
example(e304,f25,positive).
example(e304,f26,negative).
example(e304,f27,negative).
example(e304,f28,negative).
example(e304,f29,negative).
example(e304,f30,negative).
example(e304,f31,negative).
example(e304,f32,negative).
example(e304,f33,positive).
example(e304,f34,negative).
example(e305,f1,negative).
example(e305,f2,negative).
example(e305,f3,negative).
example(e305,f4,negative).
example(e305,f5,positive).
example(e305,f6,negative).
example(e305,f7,negative).
example(e305,f8,positive).
example(e305,f9,negative).
example(e305,f10,negative).
example(e305,f11,positive).
example(e305,f12,negative).
example(e305,f13,negative).
example(e305,f14,negative).
example(e305,f15,negative).
example(e305,f16,negative).
example(e305,f17,negative).
example(e305,f18,negative).
example(e305,f19,negative).
example(e305,f20,negative).
example(e305,f21,negative).
example(e305,f22,negative).
example(e305,f23,negative).
example(e305,f24,negative).
example(e305,f25,positive).
example(e305,f26,negative).
example(e305,f27,negative).
example(e305,f28,negative).
example(e305,f29,negative).
example(e305,f30,negative).
example(e305,f31,positive).
example(e305,f32,positive).
example(e305,f33,positive).
example(e305,f34,negative).
example(e306,f1,negative).
example(e306,f2,negative).
example(e306,f3,negative).
example(e306,f4,negative).
example(e306,f5,negative).
example(e306,f6,positive).
example(e306,f7,positive).
example(e306,f8,positive).
example(e306,f9,negative).
example(e306,f10,negative).
example(e306,f11,negative).
example(e306,f12,negative).
example(e306,f13,positive).
example(e306,f14,negative).
example(e306,f15,negative).
example(e306,f16,negative).
example(e306,f17,negative).
example(e306,f18,negative).
example(e306,f19,negative).
example(e306,f20,negative).
example(e306,f21,negative).
example(e306,f22,negative).
example(e306,f23,negative).
example(e306,f24,negative).
example(e306,f25,negative).
example(e306,f26,negative).
example(e306,f27,negative).
example(e306,f28,positive).
example(e306,f29,negative).
example(e306,f30,positive).
example(e306,f31,positive).
example(e306,f32,positive).
example(e306,f33,positive).
example(e306,f34,negative).
example(e307,f1,negative).
example(e307,f2,negative).
example(e307,f3,negative).
example(e307,f4,positive).
example(e307,f5,negative).
example(e307,f6,negative).
example(e307,f7,negative).
example(e307,f8,positive).
example(e307,f9,negative).
example(e307,f10,negative).
example(e307,f11,negative).
example(e307,f12,negative).
example(e307,f13,negative).
example(e307,f14,negative).
example(e307,f15,negative).
example(e307,f16,negative).
example(e307,f17,negative).
example(e307,f18,negative).
example(e307,f19,negative).
example(e307,f20,negative).
example(e307,f21,negative).
example(e307,f22,positive).
example(e307,f23,negative).
example(e307,f24,negative).
example(e307,f25,positive).
example(e307,f26,negative).
example(e307,f27,negative).
example(e307,f28,negative).
example(e307,f29,negative).
example(e307,f30,negative).
example(e307,f31,negative).
example(e307,f32,negative).
example(e307,f33,positive).
example(e307,f34,negative).
example(e308,f1,negative).
example(e308,f2,negative).
example(e308,f3,negative).
example(e308,f4,positive).
example(e308,f5,positive).
example(e308,f6,positive).
example(e308,f7,positive).
example(e308,f8,positive).
example(e308,f9,negative).
example(e308,f10,negative).
example(e308,f11,negative).
example(e308,f12,negative).
example(e308,f13,negative).
example(e308,f14,negative).
example(e308,f15,negative).
example(e308,f16,negative).
example(e308,f17,negative).
example(e308,f18,negative).
example(e308,f19,negative).
example(e308,f20,negative).
example(e308,f21,positive).
example(e308,f22,negative).
example(e308,f23,negative).
example(e308,f24,negative).
example(e308,f25,positive).
example(e308,f26,negative).
example(e308,f27,negative).
example(e308,f28,negative).
example(e308,f29,negative).
example(e308,f30,positive).
example(e308,f31,negative).
example(e308,f32,positive).
example(e308,f33,positive).
example(e308,f34,negative).
example(e309,f1,negative).
example(e309,f2,negative).
example(e309,f3,negative).
example(e309,f4,negative).
example(e309,f5,negative).
example(e309,f6,negative).
example(e309,f7,negative).
example(e309,f8,positive).
example(e309,f9,negative).
example(e309,f10,negative).
example(e309,f11,negative).
example(e309,f12,negative).
example(e309,f13,negative).
example(e309,f14,negative).
example(e309,f15,negative).
example(e309,f16,negative).
example(e309,f17,negative).
example(e309,f18,negative).
example(e309,f19,negative).
example(e309,f20,negative).
example(e309,f21,positive).
example(e309,f22,negative).
example(e309,f23,negative).
example(e309,f24,negative).
example(e309,f25,positive).
example(e309,f26,negative).
example(e309,f27,negative).
example(e309,f28,negative).
example(e309,f29,negative).
example(e309,f30,negative).
example(e309,f31,positive).
example(e309,f32,positive).
example(e309,f33,positive).
example(e309,f34,negative).
example(e310,f1,negative).
example(e310,f2,negative).
example(e310,f3,negative).
example(e310,f4,negative).
example(e310,f5,negative).
example(e310,f6,negative).
example(e310,f7,positive).
example(e310,f8,positive).
example(e310,f9,negative).
example(e310,f10,negative).
example(e310,f11,negative).
example(e310,f12,negative).
example(e310,f13,negative).
example(e310,f14,negative).
example(e310,f15,negative).
example(e310,f16,negative).
example(e310,f17,negative).
example(e310,f18,negative).
example(e310,f19,negative).
example(e310,f20,negative).
example(e310,f21,positive).
example(e310,f22,negative).
example(e310,f23,negative).
example(e310,f24,negative).
example(e310,f25,negative).
example(e310,f26,negative).
example(e310,f27,negative).
example(e310,f28,positive).
example(e310,f29,negative).
example(e310,f30,negative).
example(e310,f31,positive).
example(e310,f32,positive).
example(e310,f33,positive).
example(e310,f34,negative).
example(e311,f1,negative).
example(e311,f2,negative).
example(e311,f3,negative).
example(e311,f4,positive).
example(e311,f5,negative).
example(e311,f6,positive).
example(e311,f7,positive).
example(e311,f8,negative).
example(e311,f9,negative).
example(e311,f10,positive).
example(e311,f11,negative).
example(e311,f12,negative).
example(e311,f13,negative).
example(e311,f14,negative).
example(e311,f15,negative).
example(e311,f16,negative).
example(e311,f17,negative).
example(e311,f18,negative).
example(e311,f19,negative).
example(e311,f20,negative).
example(e311,f21,negative).
example(e311,f22,negative).
example(e311,f23,negative).
example(e311,f24,negative).
example(e311,f25,negative).
example(e311,f26,negative).
example(e311,f27,negative).
example(e311,f28,positive).
example(e311,f29,negative).
example(e311,f30,negative).
example(e311,f31,negative).
example(e311,f32,negative).
example(e311,f33,positive).
example(e311,f34,negative).
example(e312,f1,negative).
example(e312,f2,negative).
example(e312,f3,positive).
example(e312,f4,positive).
example(e312,f5,negative).
example(e312,f6,negative).
example(e312,f7,negative).
example(e312,f8,positive).
example(e312,f9,negative).
example(e312,f10,negative).
example(e312,f11,negative).
example(e312,f12,negative).
example(e312,f13,negative).
example(e312,f14,negative).
example(e312,f15,negative).
example(e312,f16,negative).
example(e312,f17,negative).
example(e312,f18,positive).
example(e312,f19,negative).
example(e312,f20,negative).
example(e312,f21,negative).
example(e312,f22,negative).
example(e312,f23,negative).
example(e312,f24,positive).
example(e312,f25,negative).
example(e312,f26,negative).
example(e312,f27,negative).
example(e312,f28,negative).
example(e312,f29,negative).
example(e312,f30,positive).
example(e312,f31,negative).
example(e312,f32,positive).
example(e312,f33,positive).
example(e312,f34,negative).
example(e313,f1,negative).
example(e313,f2,negative).
example(e313,f3,negative).
example(e313,f4,negative).
example(e313,f5,negative).
example(e313,f6,positive).
example(e313,f7,positive).
example(e313,f8,positive).
example(e313,f9,negative).
example(e313,f10,negative).
example(e313,f11,positive).
example(e313,f12,negative).
example(e313,f13,negative).
example(e313,f14,negative).
example(e313,f15,negative).
example(e313,f16,negative).
example(e313,f17,negative).
example(e313,f18,negative).
example(e313,f19,negative).
example(e313,f20,negative).
example(e313,f21,negative).
example(e313,f22,negative).
example(e313,f23,negative).
example(e313,f24,negative).
example(e313,f25,positive).
example(e313,f26,negative).
example(e313,f27,negative).
example(e313,f28,negative).
example(e313,f29,negative).
example(e313,f30,positive).
example(e313,f31,positive).
example(e313,f32,negative).
example(e313,f33,positive).
example(e313,f34,negative).
example(e314,f1,negative).
example(e314,f2,negative).
example(e314,f3,negative).
example(e314,f4,negative).
example(e314,f5,negative).
example(e314,f6,negative).
example(e314,f7,negative).
example(e314,f8,positive).
example(e314,f9,negative).
example(e314,f10,negative).
example(e314,f11,positive).
example(e314,f12,negative).
example(e314,f13,negative).
example(e314,f14,negative).
example(e314,f15,negative).
example(e314,f16,negative).
example(e314,f17,negative).
example(e314,f18,negative).
example(e314,f19,negative).
example(e314,f20,negative).
example(e314,f21,negative).
example(e314,f22,negative).
example(e314,f23,negative).
example(e314,f24,negative).
example(e314,f25,negative).
example(e314,f26,negative).
example(e314,f27,negative).
example(e314,f28,positive).
example(e314,f29,negative).
example(e314,f30,positive).
example(e314,f31,positive).
example(e314,f32,negative).
example(e314,f33,positive).
example(e314,f34,negative).
example(e315,f1,negative).
example(e315,f2,negative).
example(e315,f3,negative).
example(e315,f4,positive).
example(e315,f5,positive).
example(e315,f6,positive).
example(e315,f7,positive).
example(e315,f8,positive).
example(e315,f9,negative).
example(e315,f10,negative).
example(e315,f11,negative).
example(e315,f12,negative).
example(e315,f13,negative).
example(e315,f14,negative).
example(e315,f15,positive).
example(e315,f16,negative).
example(e315,f17,negative).
example(e315,f18,negative).
example(e315,f19,negative).
example(e315,f20,negative).
example(e315,f21,negative).
example(e315,f22,negative).
example(e315,f23,negative).
example(e315,f24,negative).
example(e315,f25,negative).
example(e315,f26,negative).
example(e315,f27,negative).
example(e315,f28,positive).
example(e315,f29,negative).
example(e315,f30,positive).
example(e315,f31,negative).
example(e315,f32,positive).
example(e315,f33,positive).
example(e315,f34,negative).
example(e316,f1,negative).
example(e316,f2,negative).
example(e316,f3,positive).
example(e316,f4,positive).
example(e316,f5,negative).
example(e316,f6,positive).
example(e316,f7,positive).
example(e316,f8,positive).
example(e316,f9,negative).
example(e316,f10,negative).
example(e316,f11,negative).
example(e316,f12,negative).
example(e316,f13,negative).
example(e316,f14,negative).
example(e316,f15,negative).
example(e316,f16,negative).
example(e316,f17,positive).
example(e316,f18,negative).
example(e316,f19,negative).
example(e316,f20,negative).
example(e316,f21,negative).
example(e316,f22,negative).
example(e316,f23,negative).
example(e316,f24,negative).
example(e316,f25,negative).
example(e316,f26,negative).
example(e316,f27,negative).
example(e316,f28,negative).
example(e316,f29,negative).
example(e316,f30,negative).
example(e316,f31,negative).
example(e316,f32,negative).
example(e316,f33,positive).
example(e316,f34,negative).
example(e317,f1,negative).
example(e317,f2,negative).
example(e317,f3,negative).
example(e317,f4,positive).
example(e317,f5,negative).
example(e317,f6,positive).
example(e317,f7,negative).
example(e317,f8,positive).
example(e317,f9,negative).
example(e317,f10,negative).
example(e317,f11,negative).
example(e317,f12,negative).
example(e317,f13,positive).
example(e317,f14,negative).
example(e317,f15,negative).
example(e317,f16,negative).
example(e317,f17,negative).
example(e317,f18,negative).
example(e317,f19,negative).
example(e317,f20,negative).
example(e317,f21,negative).
example(e317,f22,negative).
example(e317,f23,negative).
example(e317,f24,negative).
example(e317,f25,positive).
example(e317,f26,negative).
example(e317,f27,negative).
example(e317,f28,negative).
example(e317,f29,negative).
example(e317,f30,positive).
example(e317,f31,negative).
example(e317,f32,positive).
example(e317,f33,positive).
example(e317,f34,negative).
example(e318,f1,negative).
example(e318,f2,negative).
example(e318,f3,negative).
example(e318,f4,negative).
example(e318,f5,negative).
example(e318,f6,positive).
example(e318,f7,negative).
example(e318,f8,positive).
example(e318,f9,negative).
example(e318,f10,negative).
example(e318,f11,negative).
example(e318,f12,negative).
example(e318,f13,negative).
example(e318,f14,negative).
example(e318,f15,negative).
example(e318,f16,negative).
example(e318,f17,negative).
example(e318,f18,negative).
example(e318,f19,positive).
example(e318,f20,negative).
example(e318,f21,negative).
example(e318,f22,negative).
example(e318,f23,negative).
example(e318,f24,negative).
example(e318,f25,positive).
example(e318,f26,negative).
example(e318,f27,negative).
example(e318,f28,negative).
example(e318,f29,negative).
example(e318,f30,positive).
example(e318,f31,positive).
example(e318,f32,positive).
example(e318,f33,positive).
example(e318,f34,negative).
example(e319,f1,negative).
example(e319,f2,negative).
example(e319,f3,negative).
example(e319,f4,positive).
example(e319,f5,negative).
example(e319,f6,negative).
example(e319,f7,negative).
example(e319,f8,positive).
example(e319,f9,negative).
example(e319,f10,negative).
example(e319,f11,negative).
example(e319,f12,negative).
example(e319,f13,negative).
example(e319,f14,negative).
example(e319,f15,negative).
example(e319,f16,negative).
example(e319,f17,negative).
example(e319,f18,negative).
example(e319,f19,negative).
example(e319,f20,negative).
example(e319,f21,positive).
example(e319,f22,negative).
example(e319,f23,negative).
example(e319,f24,negative).
example(e319,f25,positive).
example(e319,f26,negative).
example(e319,f27,negative).
example(e319,f28,negative).
example(e319,f29,negative).
example(e319,f30,negative).
example(e319,f31,negative).
example(e319,f32,negative).
example(e319,f33,positive).
example(e319,f34,negative).
example(e320,f1,negative).
example(e320,f2,negative).
example(e320,f3,negative).
example(e320,f4,negative).
example(e320,f5,negative).
example(e320,f6,negative).
example(e320,f7,negative).
example(e320,f8,positive).
example(e320,f9,negative).
example(e320,f10,negative).
example(e320,f11,negative).
example(e320,f12,negative).
example(e320,f13,negative).
example(e320,f14,negative).
example(e320,f15,negative).
example(e320,f16,negative).
example(e320,f17,negative).
example(e320,f18,negative).
example(e320,f19,negative).
example(e320,f20,negative).
example(e320,f21,positive).
example(e320,f22,negative).
example(e320,f23,negative).
example(e320,f24,negative).
example(e320,f25,negative).
example(e320,f26,positive).
example(e320,f27,negative).
example(e320,f28,negative).
example(e320,f29,negative).
example(e320,f30,positive).
example(e320,f31,positive).
example(e320,f32,negative).
example(e320,f33,positive).
example(e320,f34,negative).
example(e321,f1,negative).
example(e321,f2,negative).
example(e321,f3,negative).
example(e321,f4,negative).
example(e321,f5,negative).
example(e321,f6,negative).
example(e321,f7,positive).
example(e321,f8,negative).
example(e321,f9,negative).
example(e321,f10,negative).
example(e321,f11,negative).
example(e321,f12,negative).
example(e321,f13,negative).
example(e321,f14,negative).
example(e321,f15,negative).
example(e321,f16,negative).
example(e321,f17,negative).
example(e321,f18,negative).
example(e321,f19,negative).
example(e321,f20,negative).
example(e321,f21,negative).
example(e321,f22,positive).
example(e321,f23,negative).
example(e321,f24,negative).
example(e321,f25,positive).
example(e321,f26,negative).
example(e321,f27,negative).
example(e321,f28,negative).
example(e321,f29,negative).
example(e321,f30,positive).
example(e321,f31,positive).
example(e321,f32,positive).
example(e321,f33,positive).
example(e321,f34,negative).
example(e322,f1,negative).
example(e322,f2,negative).
example(e322,f3,negative).
example(e322,f4,positive).
example(e322,f5,negative).
example(e322,f6,positive).
example(e322,f7,positive).
example(e322,f8,positive).
example(e322,f9,negative).
example(e322,f10,negative).
example(e322,f11,negative).
example(e322,f12,negative).
example(e322,f13,positive).
example(e322,f14,negative).
example(e322,f15,negative).
example(e322,f16,negative).
example(e322,f17,negative).
example(e322,f18,negative).
example(e322,f19,negative).
example(e322,f20,negative).
example(e322,f21,negative).
example(e322,f22,negative).
example(e322,f23,negative).
example(e322,f24,negative).
example(e322,f25,positive).
example(e322,f26,negative).
example(e322,f27,negative).
example(e322,f28,negative).
example(e322,f29,negative).
example(e322,f30,positive).
example(e322,f31,negative).
example(e322,f32,negative).
example(e322,f33,positive).
example(e322,f34,negative).
example(e323,f1,negative).
example(e323,f2,negative).
example(e323,f3,negative).
example(e323,f4,negative).
example(e323,f5,negative).
example(e323,f6,negative).
example(e323,f7,positive).
example(e323,f8,positive).
example(e323,f9,negative).
example(e323,f10,negative).
example(e323,f11,negative).
example(e323,f12,negative).
example(e323,f13,negative).
example(e323,f14,negative).
example(e323,f15,negative).
example(e323,f16,negative).
example(e323,f17,negative).
example(e323,f18,negative).
example(e323,f19,negative).
example(e323,f20,negative).
example(e323,f21,negative).
example(e323,f22,negative).
example(e323,f23,negative).
example(e323,f24,negative).
example(e323,f25,negative).
example(e323,f26,negative).
example(e323,f27,negative).
example(e323,f28,negative).
example(e323,f29,negative).
example(e323,f30,positive).
example(e323,f31,positive).
example(e323,f32,positive).
example(e323,f33,positive).
example(e323,f34,negative).
example(e324,f1,negative).
example(e324,f2,negative).
example(e324,f3,negative).
example(e324,f4,positive).
example(e324,f5,negative).
example(e324,f6,positive).
example(e324,f7,positive).
example(e324,f8,positive).
example(e324,f9,negative).
example(e324,f10,negative).
example(e324,f11,negative).
example(e324,f12,negative).
example(e324,f13,negative).
example(e324,f14,negative).
example(e324,f15,negative).
example(e324,f16,negative).
example(e324,f17,positive).
example(e324,f18,negative).
example(e324,f19,negative).
example(e324,f20,negative).
example(e324,f21,negative).
example(e324,f22,negative).
example(e324,f23,negative).
example(e324,f24,negative).
example(e324,f25,positive).
example(e324,f26,negative).
example(e324,f27,negative).
example(e324,f28,negative).
example(e324,f29,negative).
example(e324,f30,positive).
example(e324,f31,negative).
example(e324,f32,negative).
example(e324,f33,positive).
example(e324,f34,negative).
example(e325,f1,negative).
example(e325,f2,negative).
example(e325,f3,negative).
example(e325,f4,negative).
example(e325,f5,negative).
example(e325,f6,positive).
example(e325,f7,positive).
example(e325,f8,negative).
example(e325,f9,negative).
example(e325,f10,negative).
example(e325,f11,negative).
example(e325,f12,negative).
example(e325,f13,negative).
example(e325,f14,negative).
example(e325,f15,negative).
example(e325,f16,negative).
example(e325,f17,positive).
example(e325,f18,negative).
example(e325,f19,negative).
example(e325,f20,negative).
example(e325,f21,negative).
example(e325,f22,negative).
example(e325,f23,negative).
example(e325,f24,negative).
example(e325,f25,positive).
example(e325,f26,negative).
example(e325,f27,negative).
example(e325,f28,negative).
example(e325,f29,negative).
example(e325,f30,positive).
example(e325,f31,positive).
example(e325,f32,positive).
example(e325,f33,positive).
example(e325,f34,negative).
example(e326,f1,negative).
example(e326,f2,negative).
example(e326,f3,negative).
example(e326,f4,negative).
example(e326,f5,negative).
example(e326,f6,negative).
example(e326,f7,positive).
example(e326,f8,positive).
example(e326,f9,negative).
example(e326,f10,negative).
example(e326,f11,negative).
example(e326,f12,negative).
example(e326,f13,negative).
example(e326,f14,positive).
example(e326,f15,negative).
example(e326,f16,negative).
example(e326,f17,negative).
example(e326,f18,negative).
example(e326,f19,negative).
example(e326,f20,negative).
example(e326,f21,negative).
example(e326,f22,negative).
example(e326,f23,negative).
example(e326,f24,negative).
example(e326,f25,positive).
example(e326,f26,negative).
example(e326,f27,negative).
example(e326,f28,negative).
example(e326,f29,negative).
example(e326,f30,positive).
example(e326,f31,positive).
example(e326,f32,negative).
example(e326,f33,positive).
example(e326,f34,negative).
example(e327,f1,negative).
example(e327,f2,negative).
example(e327,f3,negative).
example(e327,f4,positive).
example(e327,f5,negative).
example(e327,f6,positive).
example(e327,f7,positive).
example(e327,f8,positive).
example(e327,f9,negative).
example(e327,f10,negative).
example(e327,f11,negative).
example(e327,f12,negative).
example(e327,f13,negative).
example(e327,f14,negative).
example(e327,f15,negative).
example(e327,f16,negative).
example(e327,f17,positive).
example(e327,f18,negative).
example(e327,f19,negative).
example(e327,f20,negative).
example(e327,f21,negative).
example(e327,f22,negative).
example(e327,f23,negative).
example(e327,f24,negative).
example(e327,f25,positive).
example(e327,f26,negative).
example(e327,f27,negative).
example(e327,f28,negative).
example(e327,f29,negative).
example(e327,f30,negative).
example(e327,f31,negative).
example(e327,f32,positive).
example(e327,f33,positive).
example(e327,f34,negative).
example(e328,f1,negative).
example(e328,f2,negative).
example(e328,f3,negative).
example(e328,f4,positive).
example(e328,f5,negative).
example(e328,f6,positive).
example(e328,f7,negative).
example(e328,f8,positive).
example(e328,f9,negative).
example(e328,f10,negative).
example(e328,f11,negative).
example(e328,f12,negative).
example(e328,f13,negative).
example(e328,f14,negative).
example(e328,f15,negative).
example(e328,f16,positive).
example(e328,f17,negative).
example(e328,f18,negative).
example(e328,f19,negative).
example(e328,f20,negative).
example(e328,f21,negative).
example(e328,f22,negative).
example(e328,f23,negative).
example(e328,f24,negative).
example(e328,f25,negative).
example(e328,f26,positive).
example(e328,f27,negative).
example(e328,f28,negative).
example(e328,f29,negative).
example(e328,f30,negative).
example(e328,f31,negative).
example(e328,f32,positive).
example(e328,f33,positive).
example(e328,f34,negative).
example(e329,f1,negative).
example(e329,f2,negative).
example(e329,f3,negative).
example(e329,f4,positive).
example(e329,f5,negative).
example(e329,f6,negative).
example(e329,f7,positive).
example(e329,f8,positive).
example(e329,f9,negative).
example(e329,f10,negative).
example(e329,f11,negative).
example(e329,f12,negative).
example(e329,f13,negative).
example(e329,f14,negative).
example(e329,f15,negative).
example(e329,f16,positive).
example(e329,f17,negative).
example(e329,f18,negative).
example(e329,f19,negative).
example(e329,f20,negative).
example(e329,f21,negative).
example(e329,f22,negative).
example(e329,f23,negative).
example(e329,f24,negative).
example(e329,f25,positive).
example(e329,f26,negative).
example(e329,f27,negative).
example(e329,f28,negative).
example(e329,f29,negative).
example(e329,f30,negative).
example(e329,f31,negative).
example(e329,f32,negative).
example(e329,f33,positive).
example(e329,f34,negative).
example(e330,f1,negative).
example(e330,f2,negative).
example(e330,f3,negative).
example(e330,f4,positive).
example(e330,f5,positive).
example(e330,f6,negative).
example(e330,f7,positive).
example(e330,f8,positive).
example(e330,f9,negative).
example(e330,f10,negative).
example(e330,f11,negative).
example(e330,f12,negative).
example(e330,f13,negative).
example(e330,f14,negative).
example(e330,f15,positive).
example(e330,f16,negative).
example(e330,f17,negative).
example(e330,f18,negative).
example(e330,f19,negative).
example(e330,f20,negative).
example(e330,f21,negative).
example(e330,f22,negative).
example(e330,f23,negative).
example(e330,f24,negative).
example(e330,f25,positive).
example(e330,f26,negative).
example(e330,f27,negative).
example(e330,f28,negative).
example(e330,f29,negative).
example(e330,f30,negative).
example(e330,f31,negative).
example(e330,f32,positive).
example(e330,f33,positive).
example(e330,f34,negative).
example(e331,f1,negative).
example(e331,f2,negative).
example(e331,f3,negative).
example(e331,f4,negative).
example(e331,f5,positive).
example(e331,f6,negative).
example(e331,f7,negative).
example(e331,f8,positive).
example(e331,f9,negative).
example(e331,f10,negative).
example(e331,f11,negative).
example(e331,f12,negative).
example(e331,f13,negative).
example(e331,f14,negative).
example(e331,f15,negative).
example(e331,f16,negative).
example(e331,f17,negative).
example(e331,f18,negative).
example(e331,f19,positive).
example(e331,f20,negative).
example(e331,f21,negative).
example(e331,f22,negative).
example(e331,f23,negative).
example(e331,f24,negative).
example(e331,f25,positive).
example(e331,f26,negative).
example(e331,f27,negative).
example(e331,f28,negative).
example(e331,f29,negative).
example(e331,f30,positive).
example(e331,f31,positive).
example(e331,f32,negative).
example(e331,f33,positive).
example(e331,f34,negative).
example(e332,f1,negative).
example(e332,f2,negative).
example(e332,f3,negative).
example(e332,f4,positive).
example(e332,f5,negative).
example(e332,f6,positive).
example(e332,f7,positive).
example(e332,f8,positive).
example(e332,f9,negative).
example(e332,f10,negative).
example(e332,f11,negative).
example(e332,f12,negative).
example(e332,f13,negative).
example(e332,f14,negative).
example(e332,f15,negative).
example(e332,f16,negative).
example(e332,f17,negative).
example(e332,f18,negative).
example(e332,f19,negative).
example(e332,f20,negative).
example(e332,f21,negative).
example(e332,f22,positive).
example(e332,f23,negative).
example(e332,f24,negative).
example(e332,f25,positive).
example(e332,f26,negative).
example(e332,f27,negative).
example(e332,f28,negative).
example(e332,f29,negative).
example(e332,f30,positive).
example(e332,f31,negative).
example(e332,f32,negative).
example(e332,f33,negative).
example(e332,f34,negative).
example(e333,f1,negative).
example(e333,f2,negative).
example(e333,f3,negative).
example(e333,f4,positive).
example(e333,f5,negative).
example(e333,f6,positive).
example(e333,f7,positive).
example(e333,f8,positive).
example(e333,f9,negative).
example(e333,f10,negative).
example(e333,f11,negative).
example(e333,f12,negative).
example(e333,f13,negative).
example(e333,f14,negative).
example(e333,f15,negative).
example(e333,f16,negative).
example(e333,f17,negative).
example(e333,f18,negative).
example(e333,f19,negative).
example(e333,f20,negative).
example(e333,f21,positive).
example(e333,f22,negative).
example(e333,f23,negative).
example(e333,f24,negative).
example(e333,f25,negative).
example(e333,f26,positive).
example(e333,f27,negative).
example(e333,f28,negative).
example(e333,f29,negative).
example(e333,f30,positive).
example(e333,f31,negative).
example(e333,f32,positive).
example(e333,f33,positive).
example(e333,f34,negative).
example(e334,f1,negative).
example(e334,f2,negative).
example(e334,f3,negative).
example(e334,f4,positive).
example(e334,f5,negative).
example(e334,f6,negative).
example(e334,f7,positive).
example(e334,f8,negative).
example(e334,f9,negative).
example(e334,f10,negative).
example(e334,f11,negative).
example(e334,f12,negative).
example(e334,f13,negative).
example(e334,f14,negative).
example(e334,f15,negative).
example(e334,f16,negative).
example(e334,f17,negative).
example(e334,f18,negative).
example(e334,f19,negative).
example(e334,f20,negative).
example(e334,f21,negative).
example(e334,f22,positive).
example(e334,f23,negative).
example(e334,f24,negative).
example(e334,f25,positive).
example(e334,f26,negative).
example(e334,f27,negative).
example(e334,f28,negative).
example(e334,f29,negative).
example(e334,f30,negative).
example(e334,f31,negative).
example(e334,f32,positive).
example(e334,f33,positive).
example(e334,f34,negative).
example(e335,f1,negative).
example(e335,f2,negative).
example(e335,f3,positive).
example(e335,f4,positive).
example(e335,f5,negative).
example(e335,f6,negative).
example(e335,f7,negative).
example(e335,f8,negative).
example(e335,f9,negative).
example(e335,f10,negative).
example(e335,f11,negative).
example(e335,f12,negative).
example(e335,f13,negative).
example(e335,f14,negative).
example(e335,f15,negative).
example(e335,f16,negative).
example(e335,f17,negative).
example(e335,f18,negative).
example(e335,f19,negative).
example(e335,f20,negative).
example(e335,f21,positive).
example(e335,f22,negative).
example(e335,f23,negative).
example(e335,f24,negative).
example(e335,f25,positive).
example(e335,f26,negative).
example(e335,f27,negative).
example(e335,f28,negative).
example(e335,f29,negative).
example(e335,f30,negative).
example(e335,f31,negative).
example(e335,f32,positive).
example(e335,f33,positive).
example(e335,f34,negative).
example(e336,f1,negative).
example(e336,f2,negative).
example(e336,f3,negative).
example(e336,f4,positive).
example(e336,f5,negative).
example(e336,f6,negative).
example(e336,f7,positive).
example(e336,f8,positive).
example(e336,f9,negative).
example(e336,f10,negative).
example(e336,f11,negative).
example(e336,f12,negative).
example(e336,f13,negative).
example(e336,f14,negative).
example(e336,f15,negative).
example(e336,f16,positive).
example(e336,f17,negative).
example(e336,f18,negative).
example(e336,f19,negative).
example(e336,f20,negative).
example(e336,f21,negative).
example(e336,f22,negative).
example(e336,f23,negative).
example(e336,f24,negative).
example(e336,f25,negative).
example(e336,f26,negative).
example(e336,f27,negative).
example(e336,f28,positive).
example(e336,f29,negative).
example(e336,f30,negative).
example(e336,f31,negative).
example(e336,f32,positive).
example(e336,f33,positive).
example(e336,f34,negative).
example(e337,f1,negative).
example(e337,f2,negative).
example(e337,f3,negative).
example(e337,f4,negative).
example(e337,f5,positive).
example(e337,f6,negative).
example(e337,f7,negative).
example(e337,f8,positive).
example(e337,f9,negative).
example(e337,f10,negative).
example(e337,f11,negative).
example(e337,f12,negative).
example(e337,f13,negative).
example(e337,f14,negative).
example(e337,f15,negative).
example(e337,f16,negative).
example(e337,f17,negative).
example(e337,f18,negative).
example(e337,f19,negative).
example(e337,f20,negative).
example(e337,f21,positive).
example(e337,f22,negative).
example(e337,f23,negative).
example(e337,f24,negative).
example(e337,f25,positive).
example(e337,f26,negative).
example(e337,f27,negative).
example(e337,f28,negative).
example(e337,f29,negative).
example(e337,f30,positive).
example(e337,f31,positive).
example(e337,f32,negative).
example(e337,f33,positive).
example(e337,f34,negative).
example(e338,f1,negative).
example(e338,f2,negative).
example(e338,f3,positive).
example(e338,f4,negative).
example(e338,f5,negative).
example(e338,f6,negative).
example(e338,f7,positive).
example(e338,f8,positive).
example(e338,f9,negative).
example(e338,f10,negative).
example(e338,f11,negative).
example(e338,f12,negative).
example(e338,f13,negative).
example(e338,f14,negative).
example(e338,f15,negative).
example(e338,f16,negative).
example(e338,f17,negative).
example(e338,f18,negative).
example(e338,f19,negative).
example(e338,f20,negative).
example(e338,f21,negative).
example(e338,f22,negative).
example(e338,f23,negative).
example(e338,f24,negative).
example(e338,f25,negative).
example(e338,f26,negative).
example(e338,f27,negative).
example(e338,f28,negative).
example(e338,f29,negative).
example(e338,f30,negative).
example(e338,f31,positive).
example(e338,f32,negative).
example(e338,f33,positive).
example(e338,f34,negative).
example(e339,f1,negative).
example(e339,f2,negative).
example(e339,f3,negative).
example(e339,f4,positive).
example(e339,f5,negative).
example(e339,f6,positive).
example(e339,f7,negative).
example(e339,f8,negative).
example(e339,f9,negative).
example(e339,f10,negative).
example(e339,f11,negative).
example(e339,f12,negative).
example(e339,f13,negative).
example(e339,f14,negative).
example(e339,f15,negative).
example(e339,f16,negative).
example(e339,f17,negative).
example(e339,f18,negative).
example(e339,f19,negative).
example(e339,f20,negative).
example(e339,f21,positive).
example(e339,f22,negative).
example(e339,f23,negative).
example(e339,f24,negative).
example(e339,f25,negative).
example(e339,f26,negative).
example(e339,f27,negative).
example(e339,f28,positive).
example(e339,f29,negative).
example(e339,f30,positive).
example(e339,f31,negative).
example(e339,f32,negative).
example(e339,f33,positive).
example(e339,f34,negative).
example(e340,f1,negative).
example(e340,f2,negative).
example(e340,f3,negative).
example(e340,f4,positive).
example(e340,f5,negative).
example(e340,f6,positive).
example(e340,f7,positive).
example(e340,f8,positive).
example(e340,f9,negative).
example(e340,f10,negative).
example(e340,f11,negative).
example(e340,f12,negative).
example(e340,f13,negative).
example(e340,f14,negative).
example(e340,f15,negative).
example(e340,f16,negative).
example(e340,f17,negative).
example(e340,f18,negative).
example(e340,f19,positive).
example(e340,f20,negative).
example(e340,f21,negative).
example(e340,f22,negative).
example(e340,f23,negative).
example(e340,f24,negative).
example(e340,f25,positive).
example(e340,f26,negative).
example(e340,f27,negative).
example(e340,f28,negative).
example(e340,f29,negative).
example(e340,f30,positive).
example(e340,f31,negative).
example(e340,f32,positive).
example(e340,f33,positive).
example(e340,f34,negative).
example(e341,f1,negative).
example(e341,f2,negative).
example(e341,f3,negative).
example(e341,f4,positive).
example(e341,f5,negative).
example(e341,f6,positive).
example(e341,f7,positive).
example(e341,f8,positive).
example(e341,f9,negative).
example(e341,f10,negative).
example(e341,f11,negative).
example(e341,f12,negative).
example(e341,f13,negative).
example(e341,f14,negative).
example(e341,f15,positive).
example(e341,f16,negative).
example(e341,f17,negative).
example(e341,f18,negative).
example(e341,f19,negative).
example(e341,f20,negative).
example(e341,f21,negative).
example(e341,f22,negative).
example(e341,f23,negative).
example(e341,f24,negative).
example(e341,f25,positive).
example(e341,f26,negative).
example(e341,f27,negative).
example(e341,f28,negative).
example(e341,f29,negative).
example(e341,f30,negative).
example(e341,f31,negative).
example(e341,f32,positive).
example(e341,f33,positive).
example(e341,f34,negative).
example(e342,f1,negative).
example(e342,f2,negative).
example(e342,f3,negative).
example(e342,f4,positive).
example(e342,f5,negative).
example(e342,f6,negative).
example(e342,f7,positive).
example(e342,f8,negative).
example(e342,f9,negative).
example(e342,f10,negative).
example(e342,f11,negative).
example(e342,f12,negative).
example(e342,f13,positive).
example(e342,f14,negative).
example(e342,f15,negative).
example(e342,f16,negative).
example(e342,f17,negative).
example(e342,f18,negative).
example(e342,f19,negative).
example(e342,f20,negative).
example(e342,f21,negative).
example(e342,f22,negative).
example(e342,f23,negative).
example(e342,f24,negative).
example(e342,f25,positive).
example(e342,f26,negative).
example(e342,f27,negative).
example(e342,f28,negative).
example(e342,f29,negative).
example(e342,f30,positive).
example(e342,f31,negative).
example(e342,f32,positive).
example(e342,f33,positive).
example(e342,f34,negative).
example(e343,f1,negative).
example(e343,f2,negative).
example(e343,f3,negative).
example(e343,f4,negative).
example(e343,f5,positive).
example(e343,f6,negative).
example(e343,f7,negative).
example(e343,f8,positive).
example(e343,f9,negative).
example(e343,f10,negative).
example(e343,f11,positive).
example(e343,f12,negative).
example(e343,f13,negative).
example(e343,f14,negative).
example(e343,f15,negative).
example(e343,f16,negative).
example(e343,f17,negative).
example(e343,f18,negative).
example(e343,f19,negative).
example(e343,f20,negative).
example(e343,f21,negative).
example(e343,f22,negative).
example(e343,f23,negative).
example(e343,f24,negative).
example(e343,f25,positive).
example(e343,f26,negative).
example(e343,f27,negative).
example(e343,f28,negative).
example(e343,f29,negative).
example(e343,f30,positive).
example(e343,f31,positive).
example(e343,f32,positive).
example(e343,f33,positive).
example(e343,f34,negative).
example(e344,f1,negative).
example(e344,f2,negative).
example(e344,f3,negative).
example(e344,f4,negative).
example(e344,f5,negative).
example(e344,f6,negative).
example(e344,f7,positive).
example(e344,f8,positive).
example(e344,f9,negative).
example(e344,f10,negative).
example(e344,f11,positive).
example(e344,f12,negative).
example(e344,f13,negative).
example(e344,f14,negative).
example(e344,f15,negative).
example(e344,f16,negative).
example(e344,f17,negative).
example(e344,f18,negative).
example(e344,f19,negative).
example(e344,f20,negative).
example(e344,f21,negative).
example(e344,f22,negative).
example(e344,f23,negative).
example(e344,f24,negative).
example(e344,f25,positive).
example(e344,f26,negative).
example(e344,f27,negative).
example(e344,f28,negative).
example(e344,f29,negative).
example(e344,f30,positive).
example(e344,f31,positive).
example(e344,f32,negative).
example(e344,f33,positive).
example(e344,f34,negative).
example(e345,f1,negative).
example(e345,f2,negative).
example(e345,f3,negative).
example(e345,f4,positive).
example(e345,f5,positive).
example(e345,f6,positive).
example(e345,f7,positive).
example(e345,f8,positive).
example(e345,f9,negative).
example(e345,f10,negative).
example(e345,f11,negative).
example(e345,f12,negative).
example(e345,f13,negative).
example(e345,f14,negative).
example(e345,f15,negative).
example(e345,f16,negative).
example(e345,f17,negative).
example(e345,f18,negative).
example(e345,f19,negative).
example(e345,f20,negative).
example(e345,f21,positive).
example(e345,f22,negative).
example(e345,f23,negative).
example(e345,f24,positive).
example(e345,f25,negative).
example(e345,f26,negative).
example(e345,f27,negative).
example(e345,f28,negative).
example(e345,f29,negative).
example(e345,f30,negative).
example(e345,f31,negative).
example(e345,f32,positive).
example(e345,f33,negative).
example(e345,f34,negative).
example(e346,f1,negative).
example(e346,f2,negative).
example(e346,f3,negative).
example(e346,f4,negative).
example(e346,f5,negative).
example(e346,f6,negative).
example(e346,f7,negative).
example(e346,f8,negative).
example(e346,f9,negative).
example(e346,f10,negative).
example(e346,f11,positive).
example(e346,f12,negative).
example(e346,f13,negative).
example(e346,f14,negative).
example(e346,f15,negative).
example(e346,f16,negative).
example(e346,f17,negative).
example(e346,f18,negative).
example(e346,f19,negative).
example(e346,f20,negative).
example(e346,f21,negative).
example(e346,f22,negative).
example(e346,f23,negative).
example(e346,f24,negative).
example(e346,f25,positive).
example(e346,f26,negative).
example(e346,f27,negative).
example(e346,f28,negative).
example(e346,f29,negative).
example(e346,f30,positive).
example(e346,f31,positive).
example(e346,f32,positive).
example(e346,f33,positive).
example(e346,f34,negative).
example(e347,f1,negative).
example(e347,f2,negative).
example(e347,f3,negative).
example(e347,f4,negative).
example(e347,f5,negative).
example(e347,f6,negative).
example(e347,f7,negative).
example(e347,f8,positive).
example(e347,f9,negative).
example(e347,f10,positive).
example(e347,f11,negative).
example(e347,f12,negative).
example(e347,f13,negative).
example(e347,f14,negative).
example(e347,f15,negative).
example(e347,f16,negative).
example(e347,f17,negative).
example(e347,f18,negative).
example(e347,f19,negative).
example(e347,f20,negative).
example(e347,f21,negative).
example(e347,f22,negative).
example(e347,f23,positive).
example(e347,f24,negative).
example(e347,f25,negative).
example(e347,f26,negative).
example(e347,f27,negative).
example(e347,f28,negative).
example(e347,f29,negative).
example(e347,f30,positive).
example(e347,f31,positive).
example(e347,f32,positive).
example(e347,f33,positive).
example(e347,f34,negative).
example(e348,f1,negative).
example(e348,f2,negative).
example(e348,f3,negative).
example(e348,f4,negative).
example(e348,f5,positive).
example(e348,f6,negative).
example(e348,f7,negative).
example(e348,f8,negative).
example(e348,f9,negative).
example(e348,f10,negative).
example(e348,f11,positive).
example(e348,f12,negative).
example(e348,f13,negative).
example(e348,f14,negative).
example(e348,f15,negative).
example(e348,f16,negative).
example(e348,f17,negative).
example(e348,f18,negative).
example(e348,f19,negative).
example(e348,f20,negative).
example(e348,f21,negative).
example(e348,f22,negative).
example(e348,f23,negative).
example(e348,f24,negative).
example(e348,f25,negative).
example(e348,f26,negative).
example(e348,f27,negative).
example(e348,f28,positive).
example(e348,f29,negative).
example(e348,f30,positive).
example(e348,f31,positive).
example(e348,f32,negative).
example(e348,f33,positive).
example(e348,f34,negative).
example(e349,f1,negative).
example(e349,f2,negative).
example(e349,f3,negative).
example(e349,f4,positive).
example(e349,f5,positive).
example(e349,f6,negative).
example(e349,f7,negative).
example(e349,f8,positive).
example(e349,f9,negative).
example(e349,f10,positive).
example(e349,f11,negative).
example(e349,f12,negative).
example(e349,f13,negative).
example(e349,f14,negative).
example(e349,f15,negative).
example(e349,f16,negative).
example(e349,f17,negative).
example(e349,f18,negative).
example(e349,f19,negative).
example(e349,f20,negative).
example(e349,f21,negative).
example(e349,f22,negative).
example(e349,f23,negative).
example(e349,f24,negative).
example(e349,f25,positive).
example(e349,f26,negative).
example(e349,f27,negative).
example(e349,f28,negative).
example(e349,f29,negative).
example(e349,f30,positive).
example(e349,f31,negative).
example(e349,f32,positive).
example(e349,f33,positive).
example(e349,f34,negative).
example(e350,f1,negative).
example(e350,f2,negative).
example(e350,f3,negative).
example(e350,f4,positive).
example(e350,f5,negative).
example(e350,f6,positive).
example(e350,f7,positive).
example(e350,f8,positive).
example(e350,f9,negative).
example(e350,f10,negative).
example(e350,f11,negative).
example(e350,f12,negative).
example(e350,f13,negative).
example(e350,f14,negative).
example(e350,f15,negative).
example(e350,f16,negative).
example(e350,f17,negative).
example(e350,f18,negative).
example(e350,f19,negative).
example(e350,f20,negative).
example(e350,f21,positive).
example(e350,f22,negative).
example(e350,f23,negative).
example(e350,f24,negative).
example(e350,f25,positive).
example(e350,f26,negative).
example(e350,f27,negative).
example(e350,f28,negative).
example(e350,f29,negative).
example(e350,f30,negative).
example(e350,f31,negative).
example(e350,f32,negative).
example(e350,f33,positive).
example(e350,f34,negative).
example(e351,f1,negative).
example(e351,f2,negative).
example(e351,f3,negative).
example(e351,f4,positive).
example(e351,f5,negative).
example(e351,f6,positive).
example(e351,f7,negative).
example(e351,f8,positive).
example(e351,f9,negative).
example(e351,f10,negative).
example(e351,f11,negative).
example(e351,f12,negative).
example(e351,f13,negative).
example(e351,f14,positive).
example(e351,f15,negative).
example(e351,f16,negative).
example(e351,f17,negative).
example(e351,f18,negative).
example(e351,f19,negative).
example(e351,f20,negative).
example(e351,f21,negative).
example(e351,f22,negative).
example(e351,f23,negative).
example(e351,f24,negative).
example(e351,f25,negative).
example(e351,f26,negative).
example(e351,f27,negative).
example(e351,f28,positive).
example(e351,f29,negative).
example(e351,f30,positive).
example(e351,f31,negative).
example(e351,f32,negative).
example(e351,f33,positive).
example(e351,f34,negative).
example(e352,f1,negative).
example(e352,f2,negative).
example(e352,f3,negative).
example(e352,f4,positive).
example(e352,f5,negative).
example(e352,f6,positive).
example(e352,f7,positive).
example(e352,f8,positive).
example(e352,f9,negative).
example(e352,f10,negative).
example(e352,f11,negative).
example(e352,f12,negative).
example(e352,f13,negative).
example(e352,f14,negative).
example(e352,f15,negative).
example(e352,f16,negative).
example(e352,f17,negative).
example(e352,f18,negative).
example(e352,f19,positive).
example(e352,f20,negative).
example(e352,f21,negative).
example(e352,f22,negative).
example(e352,f23,negative).
example(e352,f24,negative).
example(e352,f25,negative).
example(e352,f26,positive).
example(e352,f27,negative).
example(e352,f28,negative).
example(e352,f29,negative).
example(e352,f30,negative).
example(e352,f31,negative).
example(e352,f32,positive).
example(e352,f33,positive).
example(e352,f34,negative).
example(e353,f1,negative).
example(e353,f2,negative).
example(e353,f3,negative).
example(e353,f4,negative).
example(e353,f5,negative).
example(e353,f6,negative).
example(e353,f7,positive).
example(e353,f8,positive).
example(e353,f9,negative).
example(e353,f10,negative).
example(e353,f11,negative).
example(e353,f12,negative).
example(e353,f13,negative).
example(e353,f14,positive).
example(e353,f15,negative).
example(e353,f16,negative).
example(e353,f17,negative).
example(e353,f18,negative).
example(e353,f19,negative).
example(e353,f20,negative).
example(e353,f21,negative).
example(e353,f22,negative).
example(e353,f23,negative).
example(e353,f24,negative).
example(e353,f25,positive).
example(e353,f26,negative).
example(e353,f27,negative).
example(e353,f28,negative).
example(e353,f29,negative).
example(e353,f30,positive).
example(e353,f31,positive).
example(e353,f32,positive).
example(e353,f33,positive).
example(e353,f34,negative).
example(e354,f1,negative).
example(e354,f2,negative).
example(e354,f3,negative).
example(e354,f4,positive).
example(e354,f5,negative).
example(e354,f6,positive).
example(e354,f7,positive).
example(e354,f8,positive).
example(e354,f9,negative).
example(e354,f10,negative).
example(e354,f11,negative).
example(e354,f12,negative).
example(e354,f13,negative).
example(e354,f14,negative).
example(e354,f15,negative).
example(e354,f16,negative).
example(e354,f17,negative).
example(e354,f18,negative).
example(e354,f19,positive).
example(e354,f20,negative).
example(e354,f21,negative).
example(e354,f22,negative).
example(e354,f23,negative).
example(e354,f24,negative).
example(e354,f25,positive).
example(e354,f26,negative).
example(e354,f27,negative).
example(e354,f28,negative).
example(e354,f29,negative).
example(e354,f30,positive).
example(e354,f31,negative).
example(e354,f32,positive).
example(e354,f33,positive).
example(e354,f34,negative).
example(e355,f1,negative).
example(e355,f2,negative).
example(e355,f3,negative).
example(e355,f4,positive).
example(e355,f5,negative).
example(e355,f6,positive).
example(e355,f7,positive).
example(e355,f8,positive).
example(e355,f9,negative).
example(e355,f10,negative).
example(e355,f11,negative).
example(e355,f12,negative).
example(e355,f13,negative).
example(e355,f14,negative).
example(e355,f15,negative).
example(e355,f16,negative).
example(e355,f17,positive).
example(e355,f18,negative).
example(e355,f19,negative).
example(e355,f20,negative).
example(e355,f21,negative).
example(e355,f22,negative).
example(e355,f23,negative).
example(e355,f24,negative).
example(e355,f25,positive).
example(e355,f26,negative).
example(e355,f27,negative).
example(e355,f28,negative).
example(e355,f29,negative).
example(e355,f30,negative).
example(e355,f31,negative).
example(e355,f32,negative).
example(e355,f33,positive).
example(e355,f34,negative).
example(e356,f1,negative).
example(e356,f2,negative).
example(e356,f3,negative).
example(e356,f4,negative).
example(e356,f5,negative).
example(e356,f6,negative).
example(e356,f7,positive).
example(e356,f8,positive).
example(e356,f9,negative).
example(e356,f10,negative).
example(e356,f11,negative).
example(e356,f12,negative).
example(e356,f13,negative).
example(e356,f14,negative).
example(e356,f15,negative).
example(e356,f16,negative).
example(e356,f17,negative).
example(e356,f18,negative).
example(e356,f19,negative).
example(e356,f20,negative).
example(e356,f21,positive).
example(e356,f22,negative).
example(e356,f23,negative).
example(e356,f24,negative).
example(e356,f25,positive).
example(e356,f26,negative).
example(e356,f27,negative).
example(e356,f28,negative).
example(e356,f29,negative).
example(e356,f30,negative).
example(e356,f31,positive).
example(e356,f32,positive).
example(e356,f33,positive).
example(e356,f34,negative).
example(e357,f1,negative).
example(e357,f2,negative).
example(e357,f3,negative).
example(e357,f4,positive).
example(e357,f5,negative).
example(e357,f6,positive).
example(e357,f7,positive).
example(e357,f8,positive).
example(e357,f9,negative).
example(e357,f10,negative).
example(e357,f11,negative).
example(e357,f12,negative).
example(e357,f13,negative).
example(e357,f14,negative).
example(e357,f15,negative).
example(e357,f16,negative).
example(e357,f17,negative).
example(e357,f18,negative).
example(e357,f19,negative).
example(e357,f20,negative).
example(e357,f21,positive).
example(e357,f22,negative).
example(e357,f23,negative).
example(e357,f24,negative).
example(e357,f25,negative).
example(e357,f26,positive).
example(e357,f27,negative).
example(e357,f28,negative).
example(e357,f29,negative).
example(e357,f30,positive).
example(e357,f31,negative).
example(e357,f32,positive).
example(e357,f33,negative).
example(e357,f34,negative).
example(e358,f1,negative).
example(e358,f2,negative).
example(e358,f3,negative).
example(e358,f4,negative).
example(e358,f5,positive).
example(e358,f6,negative).
example(e358,f7,positive).
example(e358,f8,positive).
example(e358,f9,negative).
example(e358,f10,negative).
example(e358,f11,negative).
example(e358,f12,negative).
example(e358,f13,negative).
example(e358,f14,negative).
example(e358,f15,negative).
example(e358,f16,negative).
example(e358,f17,negative).
example(e358,f18,negative).
example(e358,f19,negative).
example(e358,f20,negative).
example(e358,f21,negative).
example(e358,f22,positive).
example(e358,f23,negative).
example(e358,f24,negative).
example(e358,f25,positive).
example(e358,f26,negative).
example(e358,f27,negative).
example(e358,f28,negative).
example(e358,f29,negative).
example(e358,f30,negative).
example(e358,f31,positive).
example(e358,f32,negative).
example(e358,f33,positive).
example(e358,f34,negative).
example(e359,f1,negative).
example(e359,f2,negative).
example(e359,f3,negative).
example(e359,f4,negative).
example(e359,f5,negative).
example(e359,f6,negative).
example(e359,f7,positive).
example(e359,f8,positive).
example(e359,f9,negative).
example(e359,f10,negative).
example(e359,f11,negative).
example(e359,f12,negative).
example(e359,f13,positive).
example(e359,f14,negative).
example(e359,f15,negative).
example(e359,f16,negative).
example(e359,f17,negative).
example(e359,f18,negative).
example(e359,f19,negative).
example(e359,f20,negative).
example(e359,f21,negative).
example(e359,f22,negative).
example(e359,f23,negative).
example(e359,f24,negative).
example(e359,f25,negative).
example(e359,f26,negative).
example(e359,f27,negative).
example(e359,f28,positive).
example(e359,f29,negative).
example(e359,f30,positive).
example(e359,f31,positive).
example(e359,f32,negative).
example(e359,f33,positive).
example(e359,f34,negative).
example(e360,f1,negative).
example(e360,f2,negative).
example(e360,f3,negative).
example(e360,f4,negative).
example(e360,f5,positive).
example(e360,f6,negative).
example(e360,f7,positive).
example(e360,f8,positive).
example(e360,f9,negative).
example(e360,f10,negative).
example(e360,f11,negative).
example(e360,f12,negative).
example(e360,f13,negative).
example(e360,f14,negative).
example(e360,f15,negative).
example(e360,f16,negative).
example(e360,f17,negative).
example(e360,f18,negative).
example(e360,f19,negative).
example(e360,f20,negative).
example(e360,f21,positive).
example(e360,f22,negative).
example(e360,f23,negative).
example(e360,f24,negative).
example(e360,f25,positive).
example(e360,f26,negative).
example(e360,f27,negative).
example(e360,f28,negative).
example(e360,f29,negative).
example(e360,f30,negative).
example(e360,f31,positive).
example(e360,f32,negative).
example(e360,f33,positive).
example(e360,f34,negative).
example(e361,f1,negative).
example(e361,f2,negative).
example(e361,f3,negative).
example(e361,f4,negative).
example(e361,f5,positive).
example(e361,f6,positive).
example(e361,f7,positive).
example(e361,f8,positive).
example(e361,f9,negative).
example(e361,f10,positive).
example(e361,f11,negative).
example(e361,f12,negative).
example(e361,f13,negative).
example(e361,f14,negative).
example(e361,f15,negative).
example(e361,f16,negative).
example(e361,f17,negative).
example(e361,f18,negative).
example(e361,f19,negative).
example(e361,f20,negative).
example(e361,f21,negative).
example(e361,f22,negative).
example(e361,f23,negative).
example(e361,f24,negative).
example(e361,f25,negative).
example(e361,f26,negative).
example(e361,f27,negative).
example(e361,f28,negative).
example(e361,f29,positive).
example(e361,f30,positive).
example(e361,f31,positive).
example(e361,f32,positive).
example(e361,f33,positive).
example(e361,f34,negative).
example(e362,f1,negative).
example(e362,f2,negative).
example(e362,f3,negative).
example(e362,f4,negative).
example(e362,f5,negative).
example(e362,f6,negative).
example(e362,f7,negative).
example(e362,f8,positive).
example(e362,f9,negative).
example(e362,f10,negative).
example(e362,f11,negative).
example(e362,f12,negative).
example(e362,f13,negative).
example(e362,f14,negative).
example(e362,f15,negative).
example(e362,f16,negative).
example(e362,f17,negative).
example(e362,f18,negative).
example(e362,f19,negative).
example(e362,f20,negative).
example(e362,f21,negative).
example(e362,f22,positive).
example(e362,f23,negative).
example(e362,f24,negative).
example(e362,f25,positive).
example(e362,f26,negative).
example(e362,f27,negative).
example(e362,f28,negative).
example(e362,f29,negative).
example(e362,f30,positive).
example(e362,f31,positive).
example(e362,f32,positive).
example(e362,f33,positive).
example(e362,f34,negative).
example(e363,f1,negative).
example(e363,f2,negative).
example(e363,f3,negative).
example(e363,f4,negative).
example(e363,f5,negative).
example(e363,f6,negative).
example(e363,f7,negative).
example(e363,f8,positive).
example(e363,f9,negative).
example(e363,f10,negative).
example(e363,f11,negative).
example(e363,f12,negative).
example(e363,f13,negative).
example(e363,f14,negative).
example(e363,f15,negative).
example(e363,f16,negative).
example(e363,f17,negative).
example(e363,f18,negative).
example(e363,f19,negative).
example(e363,f20,positive).
example(e363,f21,negative).
example(e363,f22,negative).
example(e363,f23,negative).
example(e363,f24,negative).
example(e363,f25,negative).
example(e363,f26,negative).
example(e363,f27,negative).
example(e363,f28,positive).
example(e363,f29,negative).
example(e363,f30,negative).
example(e363,f31,positive).
example(e363,f32,positive).
example(e363,f33,positive).
example(e363,f34,negative).
example(e364,f1,negative).
example(e364,f2,negative).
example(e364,f3,negative).
example(e364,f4,negative).
example(e364,f5,negative).
example(e364,f6,negative).
example(e364,f7,negative).
example(e364,f8,negative).
example(e364,f9,negative).
example(e364,f10,negative).
example(e364,f11,negative).
example(e364,f12,negative).
example(e364,f13,negative).
example(e364,f14,negative).
example(e364,f15,negative).
example(e364,f16,negative).
example(e364,f17,negative).
example(e364,f18,negative).
example(e364,f19,negative).
example(e364,f20,negative).
example(e364,f21,positive).
example(e364,f22,negative).
example(e364,f23,negative).
example(e364,f24,negative).
example(e364,f25,positive).
example(e364,f26,negative).
example(e364,f27,negative).
example(e364,f28,negative).
example(e364,f29,negative).
example(e364,f30,negative).
example(e364,f31,positive).
example(e364,f32,negative).
example(e364,f33,positive).
example(e364,f34,negative).
example(e365,f1,negative).
example(e365,f2,negative).
example(e365,f3,negative).
example(e365,f4,positive).
example(e365,f5,positive).
example(e365,f6,positive).
example(e365,f7,positive).
example(e365,f8,positive).
example(e365,f9,negative).
example(e365,f10,negative).
example(e365,f11,negative).
example(e365,f12,negative).
example(e365,f13,negative).
example(e365,f14,negative).
example(e365,f15,positive).
example(e365,f16,negative).
example(e365,f17,negative).
example(e365,f18,negative).
example(e365,f19,negative).
example(e365,f20,negative).
example(e365,f21,negative).
example(e365,f22,negative).
example(e365,f23,negative).
example(e365,f24,negative).
example(e365,f25,positive).
example(e365,f26,negative).
example(e365,f27,negative).
example(e365,f28,negative).
example(e365,f29,negative).
example(e365,f30,negative).
example(e365,f31,negative).
example(e365,f32,positive).
example(e365,f33,negative).
example(e365,f34,negative).
example(e366,f1,negative).
example(e366,f2,negative).
example(e366,f3,negative).
example(e366,f4,positive).
example(e366,f5,negative).
example(e366,f6,negative).
example(e366,f7,negative).
example(e366,f8,positive).
example(e366,f9,negative).
example(e366,f10,negative).
example(e366,f11,negative).
example(e366,f12,negative).
example(e366,f13,negative).
example(e366,f14,negative).
example(e366,f15,negative).
example(e366,f16,negative).
example(e366,f17,negative).
example(e366,f18,negative).
example(e366,f19,positive).
example(e366,f20,negative).
example(e366,f21,negative).
example(e366,f22,negative).
example(e366,f23,negative).
example(e366,f24,negative).
example(e366,f25,positive).
example(e366,f26,negative).
example(e366,f27,negative).
example(e366,f28,negative).
example(e366,f29,negative).
example(e366,f30,negative).
example(e366,f31,negative).
example(e366,f32,positive).
example(e366,f33,positive).
example(e366,f34,negative).
example(e367,f1,negative).
example(e367,f2,negative).
example(e367,f3,negative).
example(e367,f4,positive).
example(e367,f5,negative).
example(e367,f6,positive).
example(e367,f7,positive).
example(e367,f8,negative).
example(e367,f9,negative).
example(e367,f10,negative).
example(e367,f11,negative).
example(e367,f12,negative).
example(e367,f13,negative).
example(e367,f14,negative).
example(e367,f15,negative).
example(e367,f16,negative).
example(e367,f17,negative).
example(e367,f18,negative).
example(e367,f19,negative).
example(e367,f20,negative).
example(e367,f21,negative).
example(e367,f22,positive).
example(e367,f23,negative).
example(e367,f24,negative).
example(e367,f25,positive).
example(e367,f26,negative).
example(e367,f27,negative).
example(e367,f28,negative).
example(e367,f29,negative).
example(e367,f30,negative).
example(e367,f31,negative).
example(e367,f32,negative).
example(e367,f33,negative).
example(e367,f34,negative).
example(e368,f1,negative).
example(e368,f2,negative).
example(e368,f3,negative).
example(e368,f4,negative).
example(e368,f5,positive).
example(e368,f6,positive).
example(e368,f7,positive).
example(e368,f8,positive).
example(e368,f9,negative).
example(e368,f10,negative).
example(e368,f11,negative).
example(e368,f12,negative).
example(e368,f13,negative).
example(e368,f14,negative).
example(e368,f15,negative).
example(e368,f16,negative).
example(e368,f17,negative).
example(e368,f18,negative).
example(e368,f19,negative).
example(e368,f20,negative).
example(e368,f21,positive).
example(e368,f22,negative).
example(e368,f23,negative).
example(e368,f24,negative).
example(e368,f25,positive).
example(e368,f26,negative).
example(e368,f27,negative).
example(e368,f28,negative).
example(e368,f29,negative).
example(e368,f30,positive).
example(e368,f31,positive).
example(e368,f32,negative).
example(e368,f33,positive).
example(e368,f34,negative).
example(e369,f1,negative).
example(e369,f2,negative).
example(e369,f3,positive).
example(e369,f4,negative).
example(e369,f5,negative).
example(e369,f6,negative).
example(e369,f7,negative).
example(e369,f8,positive).
example(e369,f9,negative).
example(e369,f10,negative).
example(e369,f11,negative).
example(e369,f12,negative).
example(e369,f13,negative).
example(e369,f14,negative).
example(e369,f15,negative).
example(e369,f16,negative).
example(e369,f17,negative).
example(e369,f18,negative).
example(e369,f19,negative).
example(e369,f20,negative).
example(e369,f21,negative).
example(e369,f22,negative).
example(e369,f23,negative).
example(e369,f24,negative).
example(e369,f25,negative).
example(e369,f26,negative).
example(e369,f27,negative).
example(e369,f28,negative).
example(e369,f29,negative).
example(e369,f30,negative).
example(e369,f31,positive).
example(e369,f32,negative).
example(e369,f33,positive).
example(e369,f34,negative).
example(e370,f1,negative).
example(e370,f2,negative).
example(e370,f3,negative).
example(e370,f4,negative).
example(e370,f5,negative).
example(e370,f6,positive).
example(e370,f7,positive).
example(e370,f8,positive).
example(e370,f9,negative).
example(e370,f10,negative).
example(e370,f11,negative).
example(e370,f12,negative).
example(e370,f13,negative).
example(e370,f14,negative).
example(e370,f15,negative).
example(e370,f16,negative).
example(e370,f17,negative).
example(e370,f18,negative).
example(e370,f19,negative).
example(e370,f20,positive).
example(e370,f21,negative).
example(e370,f22,negative).
example(e370,f23,negative).
example(e370,f24,negative).
example(e370,f25,positive).
example(e370,f26,negative).
example(e370,f27,negative).
example(e370,f28,negative).
example(e370,f29,negative).
example(e370,f30,positive).
example(e370,f31,positive).
example(e370,f32,negative).
example(e370,f33,positive).
example(e370,f34,negative).
example(e371,f1,negative).
example(e371,f2,negative).
example(e371,f3,negative).
example(e371,f4,positive).
example(e371,f5,negative).
example(e371,f6,positive).
example(e371,f7,negative).
example(e371,f8,positive).
example(e371,f9,negative).
example(e371,f10,negative).
example(e371,f11,negative).
example(e371,f12,negative).
example(e371,f13,negative).
example(e371,f14,negative).
example(e371,f15,negative).
example(e371,f16,negative).
example(e371,f17,negative).
example(e371,f18,negative).
example(e371,f19,positive).
example(e371,f20,negative).
example(e371,f21,negative).
example(e371,f22,negative).
example(e371,f23,negative).
example(e371,f24,negative).
example(e371,f25,positive).
example(e371,f26,negative).
example(e371,f27,negative).
example(e371,f28,negative).
example(e371,f29,negative).
example(e371,f30,positive).
example(e371,f31,negative).
example(e371,f32,negative).
example(e371,f33,positive).
example(e371,f34,negative).
example(e372,f1,negative).
example(e372,f2,negative).
example(e372,f3,negative).
example(e372,f4,positive).
example(e372,f5,negative).
example(e372,f6,negative).
example(e372,f7,positive).
example(e372,f8,positive).
example(e372,f9,negative).
example(e372,f10,negative).
example(e372,f11,negative).
example(e372,f12,negative).
example(e372,f13,negative).
example(e372,f14,negative).
example(e372,f15,negative).
example(e372,f16,negative).
example(e372,f17,negative).
example(e372,f18,negative).
example(e372,f19,negative).
example(e372,f20,negative).
example(e372,f21,negative).
example(e372,f22,positive).
example(e372,f23,negative).
example(e372,f24,negative).
example(e372,f25,positive).
example(e372,f26,negative).
example(e372,f27,negative).
example(e372,f28,negative).
example(e372,f29,negative).
example(e372,f30,negative).
example(e372,f31,negative).
example(e372,f32,negative).
example(e372,f33,positive).
example(e372,f34,negative).
example(e373,f1,negative).
example(e373,f2,negative).
example(e373,f3,positive).
example(e373,f4,positive).
example(e373,f5,negative).
example(e373,f6,positive).
example(e373,f7,positive).
example(e373,f8,positive).
example(e373,f9,negative).
example(e373,f10,negative).
example(e373,f11,negative).
example(e373,f12,negative).
example(e373,f13,negative).
example(e373,f14,negative).
example(e373,f15,negative).
example(e373,f16,negative).
example(e373,f17,negative).
example(e373,f18,negative).
example(e373,f19,negative).
example(e373,f20,negative).
example(e373,f21,negative).
example(e373,f22,negative).
example(e373,f23,negative).
example(e373,f24,negative).
example(e373,f25,negative).
example(e373,f26,negative).
example(e373,f27,negative).
example(e373,f28,negative).
example(e373,f29,negative).
example(e373,f30,negative).
example(e373,f31,negative).
example(e373,f32,negative).
example(e373,f33,positive).
example(e373,f34,negative).
example(e374,f1,negative).
example(e374,f2,negative).
example(e374,f3,negative).
example(e374,f4,negative).
example(e374,f5,negative).
example(e374,f6,negative).
example(e374,f7,negative).
example(e374,f8,positive).
example(e374,f9,negative).
example(e374,f10,negative).
example(e374,f11,positive).
example(e374,f12,negative).
example(e374,f13,negative).
example(e374,f14,negative).
example(e374,f15,negative).
example(e374,f16,negative).
example(e374,f17,negative).
example(e374,f18,negative).
example(e374,f19,negative).
example(e374,f20,negative).
example(e374,f21,negative).
example(e374,f22,negative).
example(e374,f23,negative).
example(e374,f24,negative).
example(e374,f25,positive).
example(e374,f26,negative).
example(e374,f27,negative).
example(e374,f28,negative).
example(e374,f29,negative).
example(e374,f30,negative).
example(e374,f31,positive).
example(e374,f32,positive).
example(e374,f33,positive).
example(e374,f34,negative).
example(e375,f1,negative).
example(e375,f2,negative).
example(e375,f3,negative).
example(e375,f4,positive).
example(e375,f5,negative).
example(e375,f6,positive).
example(e375,f7,positive).
example(e375,f8,positive).
example(e375,f9,negative).
example(e375,f10,negative).
example(e375,f11,negative).
example(e375,f12,negative).
example(e375,f13,negative).
example(e375,f14,positive).
example(e375,f15,negative).
example(e375,f16,negative).
example(e375,f17,negative).
example(e375,f18,negative).
example(e375,f19,negative).
example(e375,f20,negative).
example(e375,f21,negative).
example(e375,f22,negative).
example(e375,f23,negative).
example(e375,f24,negative).
example(e375,f25,negative).
example(e375,f26,negative).
example(e375,f27,negative).
example(e375,f28,positive).
example(e375,f29,negative).
example(e375,f30,negative).
example(e375,f31,negative).
example(e375,f32,positive).
example(e375,f33,negative).
example(e375,f34,negative).
example(e376,f1,negative).
example(e376,f2,negative).
example(e376,f3,negative).
example(e376,f4,negative).
example(e376,f5,positive).
example(e376,f6,negative).
example(e376,f7,negative).
example(e376,f8,positive).
example(e376,f9,negative).
example(e376,f10,negative).
example(e376,f11,negative).
example(e376,f12,negative).
example(e376,f13,negative).
example(e376,f14,negative).
example(e376,f15,negative).
example(e376,f16,positive).
example(e376,f17,negative).
example(e376,f18,negative).
example(e376,f19,negative).
example(e376,f20,negative).
example(e376,f21,negative).
example(e376,f22,negative).
example(e376,f23,negative).
example(e376,f24,negative).
example(e376,f25,negative).
example(e376,f26,positive).
example(e376,f27,negative).
example(e376,f28,negative).
example(e376,f29,negative).
example(e376,f30,positive).
example(e376,f31,positive).
example(e376,f32,negative).
example(e376,f33,positive).
example(e376,f34,negative).
example(e377,f1,negative).
example(e377,f2,negative).
example(e377,f3,negative).
example(e377,f4,negative).
example(e377,f5,negative).
example(e377,f6,positive).
example(e377,f7,positive).
example(e377,f8,positive).
example(e377,f9,negative).
example(e377,f10,negative).
example(e377,f11,negative).
example(e377,f12,negative).
example(e377,f13,negative).
example(e377,f14,negative).
example(e377,f15,negative).
example(e377,f16,negative).
example(e377,f17,negative).
example(e377,f18,negative).
example(e377,f19,negative).
example(e377,f20,positive).
example(e377,f21,negative).
example(e377,f22,negative).
example(e377,f23,negative).
example(e377,f24,negative).
example(e377,f25,positive).
example(e377,f26,negative).
example(e377,f27,negative).
example(e377,f28,negative).
example(e377,f29,negative).
example(e377,f30,positive).
example(e377,f31,positive).
example(e377,f32,positive).
example(e377,f33,positive).
example(e377,f34,negative).
example(e378,f1,negative).
example(e378,f2,negative).
example(e378,f3,negative).
example(e378,f4,positive).
example(e378,f5,negative).
example(e378,f6,negative).
example(e378,f7,positive).
example(e378,f8,positive).
example(e378,f9,negative).
example(e378,f10,negative).
example(e378,f11,negative).
example(e378,f12,negative).
example(e378,f13,negative).
example(e378,f14,negative).
example(e378,f15,negative).
example(e378,f16,negative).
example(e378,f17,positive).
example(e378,f18,negative).
example(e378,f19,negative).
example(e378,f20,negative).
example(e378,f21,negative).
example(e378,f22,negative).
example(e378,f23,negative).
example(e378,f24,negative).
example(e378,f25,positive).
example(e378,f26,negative).
example(e378,f27,negative).
example(e378,f28,negative).
example(e378,f29,negative).
example(e378,f30,negative).
example(e378,f31,negative).
example(e378,f32,negative).
example(e378,f33,positive).
example(e378,f34,negative).
example(e379,f1,negative).
example(e379,f2,negative).
example(e379,f3,positive).
example(e379,f4,positive).
example(e379,f5,negative).
example(e379,f6,negative).
example(e379,f7,negative).
example(e379,f8,negative).
example(e379,f9,negative).
example(e379,f10,negative).
example(e379,f11,negative).
example(e379,f12,negative).
example(e379,f13,negative).
example(e379,f14,negative).
example(e379,f15,negative).
example(e379,f16,negative).
example(e379,f17,negative).
example(e379,f18,positive).
example(e379,f19,negative).
example(e379,f20,negative).
example(e379,f21,negative).
example(e379,f22,negative).
example(e379,f23,negative).
example(e379,f24,positive).
example(e379,f25,negative).
example(e379,f26,negative).
example(e379,f27,negative).
example(e379,f28,negative).
example(e379,f29,negative).
example(e379,f30,negative).
example(e379,f31,negative).
example(e379,f32,negative).
example(e379,f33,positive).
example(e379,f34,negative).
example(e380,f1,negative).
example(e380,f2,negative).
example(e380,f3,negative).
example(e380,f4,negative).
example(e380,f5,negative).
example(e380,f6,negative).
example(e380,f7,positive).
example(e380,f8,positive).
example(e380,f9,negative).
example(e380,f10,negative).
example(e380,f11,negative).
example(e380,f12,negative).
example(e380,f13,negative).
example(e380,f14,negative).
example(e380,f15,negative).
example(e380,f16,negative).
example(e380,f17,negative).
example(e380,f18,negative).
example(e380,f19,negative).
example(e380,f20,negative).
example(e380,f21,negative).
example(e380,f22,positive).
example(e380,f23,negative).
example(e380,f24,negative).
example(e380,f25,negative).
example(e380,f26,negative).
example(e380,f27,negative).
example(e380,f28,positive).
example(e380,f29,negative).
example(e380,f30,positive).
example(e380,f31,positive).
example(e380,f32,negative).
example(e380,f33,positive).
example(e380,f34,negative).
example(e381,f1,negative).
example(e381,f2,negative).
example(e381,f3,negative).
example(e381,f4,negative).
example(e381,f5,negative).
example(e381,f6,negative).
example(e381,f7,positive).
example(e381,f8,positive).
example(e381,f9,negative).
example(e381,f10,negative).
example(e381,f11,negative).
example(e381,f12,negative).
example(e381,f13,negative).
example(e381,f14,negative).
example(e381,f15,negative).
example(e381,f16,negative).
example(e381,f17,negative).
example(e381,f18,negative).
example(e381,f19,negative).
example(e381,f20,positive).
example(e381,f21,negative).
example(e381,f22,negative).
example(e381,f23,negative).
example(e381,f24,negative).
example(e381,f25,positive).
example(e381,f26,negative).
example(e381,f27,negative).
example(e381,f28,negative).
example(e381,f29,negative).
example(e381,f30,positive).
example(e381,f31,positive).
example(e381,f32,positive).
example(e381,f33,positive).
example(e381,f34,negative).
example(e382,f1,negative).
example(e382,f2,negative).
example(e382,f3,negative).
example(e382,f4,positive).
example(e382,f5,negative).
example(e382,f6,negative).
example(e382,f7,positive).
example(e382,f8,positive).
example(e382,f9,negative).
example(e382,f10,negative).
example(e382,f11,negative).
example(e382,f12,negative).
example(e382,f13,negative).
example(e382,f14,negative).
example(e382,f15,negative).
example(e382,f16,positive).
example(e382,f17,negative).
example(e382,f18,negative).
example(e382,f19,negative).
example(e382,f20,negative).
example(e382,f21,negative).
example(e382,f22,negative).
example(e382,f23,negative).
example(e382,f24,negative).
example(e382,f25,positive).
example(e382,f26,negative).
example(e382,f27,negative).
example(e382,f28,negative).
example(e382,f29,negative).
example(e382,f30,negative).
example(e382,f31,negative).
example(e382,f32,positive).
example(e382,f33,positive).
example(e382,f34,negative).
example(e383,f1,negative).
example(e383,f2,negative).
example(e383,f3,negative).
example(e383,f4,positive).
example(e383,f5,negative).
example(e383,f6,negative).
example(e383,f7,positive).
example(e383,f8,negative).
example(e383,f9,negative).
example(e383,f10,negative).
example(e383,f11,negative).
example(e383,f12,negative).
example(e383,f13,negative).
example(e383,f14,negative).
example(e383,f15,negative).
example(e383,f16,negative).
example(e383,f17,negative).
example(e383,f18,negative).
example(e383,f19,negative).
example(e383,f20,negative).
example(e383,f21,positive).
example(e383,f22,negative).
example(e383,f23,negative).
example(e383,f24,negative).
example(e383,f25,positive).
example(e383,f26,negative).
example(e383,f27,negative).
example(e383,f28,negative).
example(e383,f29,negative).
example(e383,f30,negative).
example(e383,f31,negative).
example(e383,f32,negative).
example(e383,f33,positive).
example(e383,f34,negative).
example(e384,f1,negative).
example(e384,f2,positive).
example(e384,f3,negative).
example(e384,f4,positive).
example(e384,f5,negative).
example(e384,f6,positive).
example(e384,f7,positive).
example(e384,f8,negative).
example(e384,f9,negative).
example(e384,f10,negative).
example(e384,f11,negative).
example(e384,f12,negative).
example(e384,f13,negative).
example(e384,f14,negative).
example(e384,f15,negative).
example(e384,f16,negative).
example(e384,f17,negative).
example(e384,f18,negative).
example(e384,f19,positive).
example(e384,f20,negative).
example(e384,f21,negative).
example(e384,f22,negative).
example(e384,f23,negative).
example(e384,f24,negative).
example(e384,f25,positive).
example(e384,f26,negative).
example(e384,f27,negative).
example(e384,f28,negative).
example(e384,f29,negative).
example(e384,f30,negative).
example(e384,f31,negative).
example(e384,f32,negative).
example(e384,f33,positive).
example(e384,f34,negative).
example(e385,f1,negative).
example(e385,f2,negative).
example(e385,f3,negative).
example(e385,f4,negative).
example(e385,f5,negative).
example(e385,f6,positive).
example(e385,f7,negative).
example(e385,f8,positive).
example(e385,f9,negative).
example(e385,f10,negative).
example(e385,f11,positive).
example(e385,f12,negative).
example(e385,f13,negative).
example(e385,f14,negative).
example(e385,f15,negative).
example(e385,f16,negative).
example(e385,f17,negative).
example(e385,f18,negative).
example(e385,f19,negative).
example(e385,f20,negative).
example(e385,f21,negative).
example(e385,f22,negative).
example(e385,f23,negative).
example(e385,f24,negative).
example(e385,f25,positive).
example(e385,f26,negative).
example(e385,f27,negative).
example(e385,f28,negative).
example(e385,f29,negative).
example(e385,f30,positive).
example(e385,f31,positive).
example(e385,f32,positive).
example(e385,f33,positive).
example(e385,f34,negative).
example(e386,f1,negative).
example(e386,f2,negative).
example(e386,f3,negative).
example(e386,f4,negative).
example(e386,f5,positive).
example(e386,f6,negative).
example(e386,f7,positive).
example(e386,f8,positive).
example(e386,f9,negative).
example(e386,f10,negative).
example(e386,f11,negative).
example(e386,f12,negative).
example(e386,f13,negative).
example(e386,f14,negative).
example(e386,f15,negative).
example(e386,f16,negative).
example(e386,f17,negative).
example(e386,f18,negative).
example(e386,f19,negative).
example(e386,f20,negative).
example(e386,f21,positive).
example(e386,f22,negative).
example(e386,f23,negative).
example(e386,f24,negative).
example(e386,f25,negative).
example(e386,f26,negative).
example(e386,f27,negative).
example(e386,f28,positive).
example(e386,f29,negative).
example(e386,f30,positive).
example(e386,f31,positive).
example(e386,f32,negative).
example(e386,f33,positive).
example(e386,f34,negative).
example(e387,f1,negative).
example(e387,f2,negative).
example(e387,f3,positive).
example(e387,f4,positive).
example(e387,f5,negative).
example(e387,f6,negative).
example(e387,f7,negative).
example(e387,f8,positive).
example(e387,f9,negative).
example(e387,f10,negative).
example(e387,f11,negative).
example(e387,f12,negative).
example(e387,f13,negative).
example(e387,f14,negative).
example(e387,f15,negative).
example(e387,f16,negative).
example(e387,f17,negative).
example(e387,f18,positive).
example(e387,f19,negative).
example(e387,f20,negative).
example(e387,f21,negative).
example(e387,f22,negative).
example(e387,f23,negative).
example(e387,f24,positive).
example(e387,f25,negative).
example(e387,f26,negative).
example(e387,f27,negative).
example(e387,f28,negative).
example(e387,f29,negative).
example(e387,f30,negative).
example(e387,f31,negative).
example(e387,f32,positive).
example(e387,f33,positive).
example(e387,f34,negative).
example(e388,f1,negative).
example(e388,f2,negative).
example(e388,f3,negative).
example(e388,f4,negative).
example(e388,f5,negative).
example(e388,f6,negative).
example(e388,f7,positive).
example(e388,f8,positive).
example(e388,f9,negative).
example(e388,f10,negative).
example(e388,f11,negative).
example(e388,f12,negative).
example(e388,f13,negative).
example(e388,f14,negative).
example(e388,f15,negative).
example(e388,f16,negative).
example(e388,f17,negative).
example(e388,f18,negative).
example(e388,f19,negative).
example(e388,f20,negative).
example(e388,f21,negative).
example(e388,f22,positive).
example(e388,f23,negative).
example(e388,f24,negative).
example(e388,f25,positive).
example(e388,f26,negative).
example(e388,f27,negative).
example(e388,f28,negative).
example(e388,f29,negative).
example(e388,f30,positive).
example(e388,f31,positive).
example(e388,f32,negative).
example(e388,f33,positive).
example(e388,f34,negative).
example(e389,f1,negative).
example(e389,f2,negative).
example(e389,f3,negative).
example(e389,f4,negative).
example(e389,f5,positive).
example(e389,f6,positive).
example(e389,f7,positive).
example(e389,f8,positive).
example(e389,f9,negative).
example(e389,f10,negative).
example(e389,f11,negative).
example(e389,f12,negative).
example(e389,f13,negative).
example(e389,f14,negative).
example(e389,f15,negative).
example(e389,f16,negative).
example(e389,f17,negative).
example(e389,f18,negative).
example(e389,f19,negative).
example(e389,f20,negative).
example(e389,f21,positive).
example(e389,f22,negative).
example(e389,f23,negative).
example(e389,f24,negative).
example(e389,f25,positive).
example(e389,f26,negative).
example(e389,f27,negative).
example(e389,f28,negative).
example(e389,f29,negative).
example(e389,f30,positive).
example(e389,f31,positive).
example(e389,f32,negative).
example(e389,f33,positive).
example(e389,f34,negative).
example(e390,f1,negative).
example(e390,f2,negative).
example(e390,f3,negative).
example(e390,f4,negative).
example(e390,f5,negative).
example(e390,f6,positive).
example(e390,f7,negative).
example(e390,f8,positive).
example(e390,f9,negative).
example(e390,f10,negative).
example(e390,f11,positive).
example(e390,f12,negative).
example(e390,f13,negative).
example(e390,f14,negative).
example(e390,f15,negative).
example(e390,f16,negative).
example(e390,f17,negative).
example(e390,f18,negative).
example(e390,f19,negative).
example(e390,f20,negative).
example(e390,f21,negative).
example(e390,f22,negative).
example(e390,f23,negative).
example(e390,f24,negative).
example(e390,f25,positive).
example(e390,f26,negative).
example(e390,f27,negative).
example(e390,f28,negative).
example(e390,f29,negative).
example(e390,f30,positive).
example(e390,f31,positive).
example(e390,f32,negative).
example(e390,f33,positive).
example(e390,f34,negative).
example(e391,f1,negative).
example(e391,f2,negative).
example(e391,f3,positive).
example(e391,f4,positive).
example(e391,f5,positive).
example(e391,f6,positive).
example(e391,f7,positive).
example(e391,f8,positive).
example(e391,f9,negative).
example(e391,f10,negative).
example(e391,f11,negative).
example(e391,f12,negative).
example(e391,f13,negative).
example(e391,f14,negative).
example(e391,f15,negative).
example(e391,f16,negative).
example(e391,f17,negative).
example(e391,f18,negative).
example(e391,f19,negative).
example(e391,f20,negative).
example(e391,f21,negative).
example(e391,f22,negative).
example(e391,f23,negative).
example(e391,f24,negative).
example(e391,f25,negative).
example(e391,f26,negative).
example(e391,f27,negative).
example(e391,f28,negative).
example(e391,f29,negative).
example(e391,f30,positive).
example(e391,f31,negative).
example(e391,f32,positive).
example(e391,f33,positive).
example(e391,f34,negative).
example(e392,f1,negative).
example(e392,f2,negative).
example(e392,f3,negative).
example(e392,f4,positive).
example(e392,f5,positive).
example(e392,f6,negative).
example(e392,f7,positive).
example(e392,f8,negative).
example(e392,f9,negative).
example(e392,f10,negative).
example(e392,f11,negative).
example(e392,f12,negative).
example(e392,f13,negative).
example(e392,f14,negative).
example(e392,f15,negative).
example(e392,f16,negative).
example(e392,f17,negative).
example(e392,f18,negative).
example(e392,f19,negative).
example(e392,f20,positive).
example(e392,f21,negative).
example(e392,f22,negative).
example(e392,f23,negative).
example(e392,f24,negative).
example(e392,f25,positive).
example(e392,f26,negative).
example(e392,f27,negative).
example(e392,f28,negative).
example(e392,f29,negative).
example(e392,f30,negative).
example(e392,f31,negative).
example(e392,f32,positive).
example(e392,f33,positive).
example(e392,f34,negative).
example(e393,f1,negative).
example(e393,f2,negative).
example(e393,f3,positive).
example(e393,f4,negative).
example(e393,f5,negative).
example(e393,f6,negative).
example(e393,f7,negative).
example(e393,f8,positive).
example(e393,f9,negative).
example(e393,f10,negative).
example(e393,f11,negative).
example(e393,f12,negative).
example(e393,f13,negative).
example(e393,f14,negative).
example(e393,f15,negative).
example(e393,f16,negative).
example(e393,f17,negative).
example(e393,f18,negative).
example(e393,f19,negative).
example(e393,f20,negative).
example(e393,f21,negative).
example(e393,f22,negative).
example(e393,f23,negative).
example(e393,f24,negative).
example(e393,f25,negative).
example(e393,f26,negative).
example(e393,f27,negative).
example(e393,f28,negative).
example(e393,f29,negative).
example(e393,f30,negative).
example(e393,f31,positive).
example(e393,f32,negative).
example(e393,f33,positive).
example(e393,f34,negative).
example(e394,f1,negative).
example(e394,f2,negative).
example(e394,f3,negative).
example(e394,f4,negative).
example(e394,f5,negative).
example(e394,f6,positive).
example(e394,f7,negative).
example(e394,f8,positive).
example(e394,f9,negative).
example(e394,f10,negative).
example(e394,f11,negative).
example(e394,f12,negative).
example(e394,f13,positive).
example(e394,f14,negative).
example(e394,f15,negative).
example(e394,f16,negative).
example(e394,f17,negative).
example(e394,f18,negative).
example(e394,f19,negative).
example(e394,f20,negative).
example(e394,f21,negative).
example(e394,f22,negative).
example(e394,f23,negative).
example(e394,f24,negative).
example(e394,f25,negative).
example(e394,f26,negative).
example(e394,f27,negative).
example(e394,f28,positive).
example(e394,f29,negative).
example(e394,f30,positive).
example(e394,f31,positive).
example(e394,f32,negative).
example(e394,f33,positive).
example(e394,f34,negative).
example(e395,f1,negative).
example(e395,f2,positive).
example(e395,f3,positive).
example(e395,f4,positive).
example(e395,f5,negative).
example(e395,f6,positive).
example(e395,f7,negative).
example(e395,f8,positive).
example(e395,f9,negative).
example(e395,f10,negative).
example(e395,f11,negative).
example(e395,f12,negative).
example(e395,f13,negative).
example(e395,f14,negative).
example(e395,f15,negative).
example(e395,f16,negative).
example(e395,f17,negative).
example(e395,f18,negative).
example(e395,f19,negative).
example(e395,f20,negative).
example(e395,f21,positive).
example(e395,f22,negative).
example(e395,f23,negative).
example(e395,f24,negative).
example(e395,f25,positive).
example(e395,f26,negative).
example(e395,f27,negative).
example(e395,f28,negative).
example(e395,f29,negative).
example(e395,f30,negative).
example(e395,f31,negative).
example(e395,f32,negative).
example(e395,f33,negative).
example(e395,f34,positive).
example(e396,f1,negative).
example(e396,f2,negative).
example(e396,f3,negative).
example(e396,f4,positive).
example(e396,f5,negative).
example(e396,f6,positive).
example(e396,f7,positive).
example(e396,f8,negative).
example(e396,f9,negative).
example(e396,f10,negative).
example(e396,f11,negative).
example(e396,f12,negative).
example(e396,f13,negative).
example(e396,f14,negative).
example(e396,f15,positive).
example(e396,f16,negative).
example(e396,f17,negative).
example(e396,f18,negative).
example(e396,f19,negative).
example(e396,f20,negative).
example(e396,f21,negative).
example(e396,f22,negative).
example(e396,f23,negative).
example(e396,f24,negative).
example(e396,f25,positive).
example(e396,f26,negative).
example(e396,f27,negative).
example(e396,f28,negative).
example(e396,f29,negative).
example(e396,f30,negative).
example(e396,f31,negative).
example(e396,f32,positive).
example(e396,f33,positive).
example(e396,f34,negative).
example(e397,f1,negative).
example(e397,f2,negative).
example(e397,f3,negative).
example(e397,f4,negative).
example(e397,f5,negative).
example(e397,f6,negative).
example(e397,f7,negative).
example(e397,f8,positive).
example(e397,f9,negative).
example(e397,f10,negative).
example(e397,f11,positive).
example(e397,f12,negative).
example(e397,f13,negative).
example(e397,f14,negative).
example(e397,f15,negative).
example(e397,f16,negative).
example(e397,f17,negative).
example(e397,f18,negative).
example(e397,f19,negative).
example(e397,f20,negative).
example(e397,f21,negative).
example(e397,f22,negative).
example(e397,f23,negative).
example(e397,f24,negative).
example(e397,f25,positive).
example(e397,f26,negative).
example(e397,f27,negative).
example(e397,f28,negative).
example(e397,f29,negative).
example(e397,f30,positive).
example(e397,f31,positive).
example(e397,f32,negative).
example(e397,f33,positive).
example(e397,f34,negative).
example(e398,f1,negative).
example(e398,f2,negative).
example(e398,f3,negative).
example(e398,f4,positive).
example(e398,f5,negative).
example(e398,f6,negative).
example(e398,f7,negative).
example(e398,f8,positive).
example(e398,f9,negative).
example(e398,f10,negative).
example(e398,f11,positive).
example(e398,f12,negative).
example(e398,f13,negative).
example(e398,f14,negative).
example(e398,f15,negative).
example(e398,f16,negative).
example(e398,f17,negative).
example(e398,f18,negative).
example(e398,f19,negative).
example(e398,f20,negative).
example(e398,f21,negative).
example(e398,f22,negative).
example(e398,f23,negative).
example(e398,f24,negative).
example(e398,f25,positive).
example(e398,f26,negative).
example(e398,f27,negative).
example(e398,f28,negative).
example(e398,f29,negative).
example(e398,f30,negative).
example(e398,f31,negative).
example(e398,f32,positive).
example(e398,f33,positive).
example(e398,f34,negative).
example(e399,f1,negative).
example(e399,f2,negative).
example(e399,f3,negative).
example(e399,f4,negative).
example(e399,f5,positive).
example(e399,f6,negative).
example(e399,f7,positive).
example(e399,f8,positive).
example(e399,f9,negative).
example(e399,f10,negative).
example(e399,f11,negative).
example(e399,f12,negative).
example(e399,f13,negative).
example(e399,f14,negative).
example(e399,f15,negative).
example(e399,f16,negative).
example(e399,f17,negative).
example(e399,f18,negative).
example(e399,f19,negative).
example(e399,f20,negative).
example(e399,f21,positive).
example(e399,f22,negative).
example(e399,f23,negative).
example(e399,f24,negative).
example(e399,f25,positive).
example(e399,f26,negative).
example(e399,f27,negative).
example(e399,f28,negative).
example(e399,f29,negative).
example(e399,f30,negative).
example(e399,f31,positive).
example(e399,f32,negative).
example(e399,f33,positive).
example(e399,f34,negative).
example(e400,f1,negative).
example(e400,f2,negative).
example(e400,f3,negative).
example(e400,f4,positive).
example(e400,f5,negative).
example(e400,f6,negative).
example(e400,f7,negative).
example(e400,f8,negative).
example(e400,f9,negative).
example(e400,f10,negative).
example(e400,f11,negative).
example(e400,f12,negative).
example(e400,f13,negative).
example(e400,f14,positive).
example(e400,f15,negative).
example(e400,f16,negative).
example(e400,f17,negative).
example(e400,f18,negative).
example(e400,f19,negative).
example(e400,f20,negative).
example(e400,f21,negative).
example(e400,f22,negative).
example(e400,f23,negative).
example(e400,f24,negative).
example(e400,f25,positive).
example(e400,f26,negative).
example(e400,f27,negative).
example(e400,f28,negative).
example(e400,f29,negative).
example(e400,f30,negative).
example(e400,f31,negative).
example(e400,f32,negative).
example(e400,f33,positive).
example(e400,f34,negative).
example(e401,f1,negative).
example(e401,f2,negative).
example(e401,f3,negative).
example(e401,f4,positive).
example(e401,f5,negative).
example(e401,f6,positive).
example(e401,f7,negative).
example(e401,f8,positive).
example(e401,f9,negative).
example(e401,f10,negative).
example(e401,f11,negative).
example(e401,f12,negative).
example(e401,f13,negative).
example(e401,f14,negative).
example(e401,f15,positive).
example(e401,f16,negative).
example(e401,f17,negative).
example(e401,f18,negative).
example(e401,f19,negative).
example(e401,f20,negative).
example(e401,f21,negative).
example(e401,f22,negative).
example(e401,f23,negative).
example(e401,f24,negative).
example(e401,f25,positive).
example(e401,f26,negative).
example(e401,f27,negative).
example(e401,f28,negative).
example(e401,f29,negative).
example(e401,f30,negative).
example(e401,f31,negative).
example(e401,f32,negative).
example(e401,f33,positive).
example(e401,f34,negative).
example(e402,f1,negative).
example(e402,f2,negative).
example(e402,f3,negative).
example(e402,f4,positive).
example(e402,f5,negative).
example(e402,f6,negative).
example(e402,f7,positive).
example(e402,f8,negative).
example(e402,f9,negative).
example(e402,f10,negative).
example(e402,f11,negative).
example(e402,f12,negative).
example(e402,f13,negative).
example(e402,f14,negative).
example(e402,f15,negative).
example(e402,f16,negative).
example(e402,f17,negative).
example(e402,f18,negative).
example(e402,f19,negative).
example(e402,f20,negative).
example(e402,f21,negative).
example(e402,f22,positive).
example(e402,f23,negative).
example(e402,f24,negative).
example(e402,f25,positive).
example(e402,f26,negative).
example(e402,f27,negative).
example(e402,f28,negative).
example(e402,f29,negative).
example(e402,f30,positive).
example(e402,f31,negative).
example(e402,f32,positive).
example(e402,f33,positive).
example(e402,f34,negative).
example(e403,f1,negative).
example(e403,f2,negative).
example(e403,f3,negative).
example(e403,f4,negative).
example(e403,f5,negative).
example(e403,f6,negative).
example(e403,f7,positive).
example(e403,f8,positive).
example(e403,f9,negative).
example(e403,f10,negative).
example(e403,f11,negative).
example(e403,f12,negative).
example(e403,f13,negative).
example(e403,f14,negative).
example(e403,f15,negative).
example(e403,f16,negative).
example(e403,f17,negative).
example(e403,f18,negative).
example(e403,f19,negative).
example(e403,f20,negative).
example(e403,f21,positive).
example(e403,f22,negative).
example(e403,f23,negative).
example(e403,f24,negative).
example(e403,f25,negative).
example(e403,f26,positive).
example(e403,f27,negative).
example(e403,f28,negative).
example(e403,f29,negative).
example(e403,f30,negative).
example(e403,f31,positive).
example(e403,f32,positive).
example(e403,f33,positive).
example(e403,f34,negative).
example(e404,f1,negative).
example(e404,f2,negative).
example(e404,f3,negative).
example(e404,f4,negative).
example(e404,f5,negative).
example(e404,f6,negative).
example(e404,f7,positive).
example(e404,f8,positive).
example(e404,f9,negative).
example(e404,f10,negative).
example(e404,f11,negative).
example(e404,f12,negative).
example(e404,f13,negative).
example(e404,f14,negative).
example(e404,f15,negative).
example(e404,f16,negative).
example(e404,f17,negative).
example(e404,f18,negative).
example(e404,f19,negative).
example(e404,f20,negative).
example(e404,f21,negative).
example(e404,f22,positive).
example(e404,f23,negative).
example(e404,f24,negative).
example(e404,f25,positive).
example(e404,f26,negative).
example(e404,f27,negative).
example(e404,f28,negative).
example(e404,f29,negative).
example(e404,f30,negative).
example(e404,f31,positive).
example(e404,f32,negative).
example(e404,f33,positive).
example(e404,f34,negative).
example(e405,f1,negative).
example(e405,f2,positive).
example(e405,f3,negative).
example(e405,f4,positive).
example(e405,f5,negative).
example(e405,f6,negative).
example(e405,f7,positive).
example(e405,f8,positive).
example(e405,f9,negative).
example(e405,f10,negative).
example(e405,f11,positive).
example(e405,f12,negative).
example(e405,f13,negative).
example(e405,f14,negative).
example(e405,f15,negative).
example(e405,f16,negative).
example(e405,f17,negative).
example(e405,f18,negative).
example(e405,f19,negative).
example(e405,f20,negative).
example(e405,f21,negative).
example(e405,f22,negative).
example(e405,f23,negative).
example(e405,f24,negative).
example(e405,f25,positive).
example(e405,f26,negative).
example(e405,f27,negative).
example(e405,f28,negative).
example(e405,f29,negative).
example(e405,f30,negative).
example(e405,f31,negative).
example(e405,f32,negative).
example(e405,f33,positive).
example(e405,f34,negative).
example(e406,f1,negative).
example(e406,f2,negative).
example(e406,f3,negative).
example(e406,f4,negative).
example(e406,f5,negative).
example(e406,f6,positive).
example(e406,f7,negative).
example(e406,f8,positive).
example(e406,f9,negative).
example(e406,f10,negative).
example(e406,f11,negative).
example(e406,f12,negative).
example(e406,f13,negative).
example(e406,f14,negative).
example(e406,f15,negative).
example(e406,f16,negative).
example(e406,f17,negative).
example(e406,f18,negative).
example(e406,f19,negative).
example(e406,f20,negative).
example(e406,f21,positive).
example(e406,f22,negative).
example(e406,f23,negative).
example(e406,f24,negative).
example(e406,f25,positive).
example(e406,f26,negative).
example(e406,f27,negative).
example(e406,f28,negative).
example(e406,f29,negative).
example(e406,f30,positive).
example(e406,f31,positive).
example(e406,f32,positive).
example(e406,f33,positive).
example(e406,f34,negative).
example(e407,f1,negative).
example(e407,f2,negative).
example(e407,f3,negative).
example(e407,f4,negative).
example(e407,f5,negative).
example(e407,f6,negative).
example(e407,f7,positive).
example(e407,f8,positive).
example(e407,f9,negative).
example(e407,f10,negative).
example(e407,f11,negative).
example(e407,f12,negative).
example(e407,f13,negative).
example(e407,f14,negative).
example(e407,f15,negative).
example(e407,f16,positive).
example(e407,f17,negative).
example(e407,f18,negative).
example(e407,f19,negative).
example(e407,f20,negative).
example(e407,f21,negative).
example(e407,f22,negative).
example(e407,f23,negative).
example(e407,f24,negative).
example(e407,f25,negative).
example(e407,f26,positive).
example(e407,f27,negative).
example(e407,f28,negative).
example(e407,f29,negative).
example(e407,f30,positive).
example(e407,f31,positive).
example(e407,f32,negative).
example(e407,f33,positive).
example(e407,f34,negative).
example(e408,f1,negative).
example(e408,f2,negative).
example(e408,f3,negative).
example(e408,f4,positive).
example(e408,f5,negative).
example(e408,f6,positive).
example(e408,f7,negative).
example(e408,f8,negative).
example(e408,f9,negative).
example(e408,f10,negative).
example(e408,f11,negative).
example(e408,f12,negative).
example(e408,f13,negative).
example(e408,f14,negative).
example(e408,f15,negative).
example(e408,f16,negative).
example(e408,f17,negative).
example(e408,f18,negative).
example(e408,f19,positive).
example(e408,f20,negative).
example(e408,f21,negative).
example(e408,f22,negative).
example(e408,f23,negative).
example(e408,f24,negative).
example(e408,f25,positive).
example(e408,f26,negative).
example(e408,f27,negative).
example(e408,f28,negative).
example(e408,f29,negative).
example(e408,f30,negative).
example(e408,f31,negative).
example(e408,f32,negative).
example(e408,f33,positive).
example(e408,f34,negative).
example(e409,f1,negative).
example(e409,f2,negative).
example(e409,f3,negative).
example(e409,f4,negative).
example(e409,f5,positive).
example(e409,f6,positive).
example(e409,f7,positive).
example(e409,f8,positive).
example(e409,f9,negative).
example(e409,f10,positive).
example(e409,f11,negative).
example(e409,f12,negative).
example(e409,f13,negative).
example(e409,f14,negative).
example(e409,f15,negative).
example(e409,f16,negative).
example(e409,f17,negative).
example(e409,f18,negative).
example(e409,f19,negative).
example(e409,f20,negative).
example(e409,f21,negative).
example(e409,f22,negative).
example(e409,f23,negative).
example(e409,f24,negative).
example(e409,f25,positive).
example(e409,f26,negative).
example(e409,f27,negative).
example(e409,f28,negative).
example(e409,f29,negative).
example(e409,f30,positive).
example(e409,f31,positive).
example(e409,f32,negative).
example(e409,f33,positive).
example(e409,f34,negative).
example(e410,f1,negative).
example(e410,f2,negative).
example(e410,f3,negative).
example(e410,f4,positive).
example(e410,f5,negative).
example(e410,f6,positive).
example(e410,f7,positive).
example(e410,f8,positive).
example(e410,f9,negative).
example(e410,f10,negative).
example(e410,f11,negative).
example(e410,f12,negative).
example(e410,f13,negative).
example(e410,f14,negative).
example(e410,f15,negative).
example(e410,f16,negative).
example(e410,f17,negative).
example(e410,f18,negative).
example(e410,f19,positive).
example(e410,f20,negative).
example(e410,f21,negative).
example(e410,f22,negative).
example(e410,f23,negative).
example(e410,f24,negative).
example(e410,f25,positive).
example(e410,f26,negative).
example(e410,f27,negative).
example(e410,f28,negative).
example(e410,f29,negative).
example(e410,f30,negative).
example(e410,f31,negative).
example(e410,f32,negative).
example(e410,f33,positive).
example(e410,f34,negative).
example(e411,f1,negative).
example(e411,f2,negative).
example(e411,f3,positive).
example(e411,f4,positive).
example(e411,f5,negative).
example(e411,f6,positive).
example(e411,f7,positive).
example(e411,f8,negative).
example(e411,f9,negative).
example(e411,f10,negative).
example(e411,f11,negative).
example(e411,f12,negative).
example(e411,f13,negative).
example(e411,f14,negative).
example(e411,f15,negative).
example(e411,f16,negative).
example(e411,f17,positive).
example(e411,f18,negative).
example(e411,f19,negative).
example(e411,f20,negative).
example(e411,f21,negative).
example(e411,f22,negative).
example(e411,f23,negative).
example(e411,f24,negative).
example(e411,f25,negative).
example(e411,f26,negative).
example(e411,f27,negative).
example(e411,f28,negative).
example(e411,f29,negative).
example(e411,f30,negative).
example(e411,f31,negative).
example(e411,f32,negative).
example(e411,f33,positive).
example(e411,f34,negative).
example(e412,f1,negative).
example(e412,f2,negative).
example(e412,f3,positive).
example(e412,f4,positive).
example(e412,f5,positive).
example(e412,f6,positive).
example(e412,f7,negative).
example(e412,f8,negative).
example(e412,f9,negative).
example(e412,f10,negative).
example(e412,f11,negative).
example(e412,f12,negative).
example(e412,f13,negative).
example(e412,f14,negative).
example(e412,f15,negative).
example(e412,f16,negative).
example(e412,f17,negative).
example(e412,f18,negative).
example(e412,f19,negative).
example(e412,f20,negative).
example(e412,f21,negative).
example(e412,f22,negative).
example(e412,f23,negative).
example(e412,f24,negative).
example(e412,f25,negative).
example(e412,f26,negative).
example(e412,f27,negative).
example(e412,f28,negative).
example(e412,f29,negative).
example(e412,f30,negative).
example(e412,f31,negative).
example(e412,f32,negative).
example(e412,f33,positive).
example(e412,f34,negative).
example(e413,f1,negative).
example(e413,f2,negative).
example(e413,f3,positive).
example(e413,f4,negative).
example(e413,f5,positive).
example(e413,f6,negative).
example(e413,f7,negative).
example(e413,f8,positive).
example(e413,f9,negative).
example(e413,f10,negative).
example(e413,f11,negative).
example(e413,f12,negative).
example(e413,f13,negative).
example(e413,f14,negative).
example(e413,f15,negative).
example(e413,f16,negative).
example(e413,f17,negative).
example(e413,f18,positive).
example(e413,f19,negative).
example(e413,f20,negative).
example(e413,f21,negative).
example(e413,f22,negative).
example(e413,f23,negative).
example(e413,f24,negative).
example(e413,f25,negative).
example(e413,f26,negative).
example(e413,f27,negative).
example(e413,f28,negative).
example(e413,f29,negative).
example(e413,f30,positive).
example(e413,f31,positive).
example(e413,f32,negative).
example(e413,f33,positive).
example(e413,f34,negative).
example(e414,f1,negative).
example(e414,f2,negative).
example(e414,f3,negative).
example(e414,f4,negative).
example(e414,f5,negative).
example(e414,f6,negative).
example(e414,f7,positive).
example(e414,f8,negative).
example(e414,f9,negative).
example(e414,f10,negative).
example(e414,f11,negative).
example(e414,f12,negative).
example(e414,f13,negative).
example(e414,f14,negative).
example(e414,f15,negative).
example(e414,f16,negative).
example(e414,f17,negative).
example(e414,f18,negative).
example(e414,f19,negative).
example(e414,f20,negative).
example(e414,f21,positive).
example(e414,f22,negative).
example(e414,f23,negative).
example(e414,f24,negative).
example(e414,f25,negative).
example(e414,f26,negative).
example(e414,f27,negative).
example(e414,f28,positive).
example(e414,f29,negative).
example(e414,f30,positive).
example(e414,f31,positive).
example(e414,f32,positive).
example(e414,f33,positive).
example(e414,f34,negative).
example(e415,f1,negative).
example(e415,f2,negative).
example(e415,f3,negative).
example(e415,f4,positive).
example(e415,f5,negative).
example(e415,f6,positive).
example(e415,f7,negative).
example(e415,f8,positive).
example(e415,f9,negative).
example(e415,f10,negative).
example(e415,f11,negative).
example(e415,f12,negative).
example(e415,f13,negative).
example(e415,f14,negative).
example(e415,f15,negative).
example(e415,f16,negative).
example(e415,f17,negative).
example(e415,f18,negative).
example(e415,f19,negative).
example(e415,f20,negative).
example(e415,f21,positive).
example(e415,f22,negative).
example(e415,f23,negative).
example(e415,f24,negative).
example(e415,f25,negative).
example(e415,f26,negative).
example(e415,f27,negative).
example(e415,f28,positive).
example(e415,f29,negative).
example(e415,f30,positive).
example(e415,f31,negative).
example(e415,f32,negative).
example(e415,f33,positive).
example(e415,f34,negative).
example(e416,f1,negative).
example(e416,f2,negative).
example(e416,f3,negative).
example(e416,f4,positive).
example(e416,f5,negative).
example(e416,f6,positive).
example(e416,f7,negative).
example(e416,f8,positive).
example(e416,f9,negative).
example(e416,f10,negative).
example(e416,f11,negative).
example(e416,f12,negative).
example(e416,f13,negative).
example(e416,f14,negative).
example(e416,f15,negative).
example(e416,f16,negative).
example(e416,f17,positive).
example(e416,f18,negative).
example(e416,f19,negative).
example(e416,f20,negative).
example(e416,f21,negative).
example(e416,f22,negative).
example(e416,f23,negative).
example(e416,f24,negative).
example(e416,f25,positive).
example(e416,f26,negative).
example(e416,f27,negative).
example(e416,f28,negative).
example(e416,f29,negative).
example(e416,f30,negative).
example(e416,f31,negative).
example(e416,f32,positive).
example(e416,f33,negative).
example(e416,f34,negative).
example(e417,f1,negative).
example(e417,f2,negative).
example(e417,f3,negative).
example(e417,f4,positive).
example(e417,f5,negative).
example(e417,f6,positive).
example(e417,f7,negative).
example(e417,f8,positive).
example(e417,f9,negative).
example(e417,f10,negative).
example(e417,f11,negative).
example(e417,f12,negative).
example(e417,f13,negative).
example(e417,f14,negative).
example(e417,f15,negative).
example(e417,f16,negative).
example(e417,f17,negative).
example(e417,f18,negative).
example(e417,f19,positive).
example(e417,f20,negative).
example(e417,f21,negative).
example(e417,f22,negative).
example(e417,f23,negative).
example(e417,f24,negative).
example(e417,f25,negative).
example(e417,f26,negative).
example(e417,f27,negative).
example(e417,f28,positive).
example(e417,f29,negative).
example(e417,f30,positive).
example(e417,f31,negative).
example(e417,f32,negative).
example(e417,f33,positive).
example(e417,f34,negative).
example(e418,f1,negative).
example(e418,f2,negative).
example(e418,f3,negative).
example(e418,f4,negative).
example(e418,f5,negative).
example(e418,f6,positive).
example(e418,f7,positive).
example(e418,f8,positive).
example(e418,f9,negative).
example(e418,f10,negative).
example(e418,f11,negative).
example(e418,f12,negative).
example(e418,f13,negative).
example(e418,f14,positive).
example(e418,f15,negative).
example(e418,f16,negative).
example(e418,f17,negative).
example(e418,f18,negative).
example(e418,f19,negative).
example(e418,f20,negative).
example(e418,f21,negative).
example(e418,f22,negative).
example(e418,f23,negative).
example(e418,f24,negative).
example(e418,f25,negative).
example(e418,f26,negative).
example(e418,f27,negative).
example(e418,f28,positive).
example(e418,f29,negative).
example(e418,f30,positive).
example(e418,f31,positive).
example(e418,f32,negative).
example(e418,f33,positive).
example(e418,f34,negative).
example(e419,f1,negative).
example(e419,f2,negative).
example(e419,f3,positive).
example(e419,f4,positive).
example(e419,f5,negative).
example(e419,f6,negative).
example(e419,f7,negative).
example(e419,f8,positive).
example(e419,f9,negative).
example(e419,f10,negative).
example(e419,f11,negative).
example(e419,f12,negative).
example(e419,f13,negative).
example(e419,f14,negative).
example(e419,f15,negative).
example(e419,f16,negative).
example(e419,f17,negative).
example(e419,f18,negative).
example(e419,f19,negative).
example(e419,f20,negative).
example(e419,f21,negative).
example(e419,f22,negative).
example(e419,f23,negative).
example(e419,f24,negative).
example(e419,f25,negative).
example(e419,f26,negative).
example(e419,f27,negative).
example(e419,f28,negative).
example(e419,f29,negative).
example(e419,f30,negative).
example(e419,f31,negative).
example(e419,f32,negative).
example(e419,f33,positive).
example(e419,f34,negative).
example(e420,f1,negative).
example(e420,f2,negative).
example(e420,f3,negative).
example(e420,f4,positive).
example(e420,f5,negative).
example(e420,f6,negative).
example(e420,f7,negative).
example(e420,f8,positive).
example(e420,f9,negative).
example(e420,f10,negative).
example(e420,f11,negative).
example(e420,f12,negative).
example(e420,f13,positive).
example(e420,f14,negative).
example(e420,f15,negative).
example(e420,f16,negative).
example(e420,f17,negative).
example(e420,f18,negative).
example(e420,f19,negative).
example(e420,f20,negative).
example(e420,f21,negative).
example(e420,f22,negative).
example(e420,f23,negative).
example(e420,f24,negative).
example(e420,f25,positive).
example(e420,f26,negative).
example(e420,f27,negative).
example(e420,f28,negative).
example(e420,f29,negative).
example(e420,f30,positive).
example(e420,f31,negative).
example(e420,f32,negative).
example(e420,f33,positive).
example(e420,f34,negative).
example(e421,f1,negative).
example(e421,f2,negative).
example(e421,f3,negative).
example(e421,f4,negative).
example(e421,f5,negative).
example(e421,f6,negative).
example(e421,f7,positive).
example(e421,f8,positive).
example(e421,f9,negative).
example(e421,f10,negative).
example(e421,f11,negative).
example(e421,f12,negative).
example(e421,f13,negative).
example(e421,f14,negative).
example(e421,f15,positive).
example(e421,f16,negative).
example(e421,f17,negative).
example(e421,f18,negative).
example(e421,f19,negative).
example(e421,f20,negative).
example(e421,f21,negative).
example(e421,f22,negative).
example(e421,f23,negative).
example(e421,f24,negative).
example(e421,f25,negative).
example(e421,f26,negative).
example(e421,f27,negative).
example(e421,f28,positive).
example(e421,f29,negative).
example(e421,f30,positive).
example(e421,f31,positive).
example(e421,f32,negative).
example(e421,f33,positive).
example(e421,f34,negative).
example(e422,f1,negative).
example(e422,f2,negative).
example(e422,f3,negative).
example(e422,f4,positive).
example(e422,f5,negative).
example(e422,f6,negative).
example(e422,f7,positive).
example(e422,f8,negative).
example(e422,f9,negative).
example(e422,f10,negative).
example(e422,f11,negative).
example(e422,f12,negative).
example(e422,f13,negative).
example(e422,f14,negative).
example(e422,f15,negative).
example(e422,f16,negative).
example(e422,f17,negative).
example(e422,f18,negative).
example(e422,f19,negative).
example(e422,f20,negative).
example(e422,f21,positive).
example(e422,f22,negative).
example(e422,f23,negative).
example(e422,f24,negative).
example(e422,f25,positive).
example(e422,f26,negative).
example(e422,f27,negative).
example(e422,f28,negative).
example(e422,f29,negative).
example(e422,f30,negative).
example(e422,f31,negative).
example(e422,f32,positive).
example(e422,f33,positive).
example(e422,f34,negative).
example(e423,f1,negative).
example(e423,f2,negative).
example(e423,f3,negative).
example(e423,f4,positive).
example(e423,f5,negative).
example(e423,f6,positive).
example(e423,f7,positive).
example(e423,f8,negative).
example(e423,f9,negative).
example(e423,f10,negative).
example(e423,f11,negative).
example(e423,f12,negative).
example(e423,f13,negative).
example(e423,f14,negative).
example(e423,f15,negative).
example(e423,f16,negative).
example(e423,f17,positive).
example(e423,f18,negative).
example(e423,f19,negative).
example(e423,f20,negative).
example(e423,f21,negative).
example(e423,f22,negative).
example(e423,f23,negative).
example(e423,f24,negative).
example(e423,f25,positive).
example(e423,f26,negative).
example(e423,f27,negative).
example(e423,f28,negative).
example(e423,f29,negative).
example(e423,f30,negative).
example(e423,f31,negative).
example(e423,f32,negative).
example(e423,f33,positive).
example(e423,f34,negative).
example(e424,f1,negative).
example(e424,f2,negative).
example(e424,f3,negative).
example(e424,f4,negative).
example(e424,f5,positive).
example(e424,f6,negative).
example(e424,f7,negative).
example(e424,f8,positive).
example(e424,f9,negative).
example(e424,f10,negative).
example(e424,f11,positive).
example(e424,f12,negative).
example(e424,f13,negative).
example(e424,f14,negative).
example(e424,f15,negative).
example(e424,f16,negative).
example(e424,f17,negative).
example(e424,f18,negative).
example(e424,f19,negative).
example(e424,f20,negative).
example(e424,f21,negative).
example(e424,f22,negative).
example(e424,f23,negative).
example(e424,f24,negative).
example(e424,f25,negative).
example(e424,f26,negative).
example(e424,f27,negative).
example(e424,f28,positive).
example(e424,f29,negative).
example(e424,f30,positive).
example(e424,f31,positive).
example(e424,f32,negative).
example(e424,f33,positive).
example(e424,f34,negative).
example(e425,f1,negative).
example(e425,f2,negative).
example(e425,f3,negative).
example(e425,f4,positive).
example(e425,f5,negative).
example(e425,f6,negative).
example(e425,f7,positive).
example(e425,f8,negative).
example(e425,f9,negative).
example(e425,f10,negative).
example(e425,f11,negative).
example(e425,f12,negative).
example(e425,f13,negative).
example(e425,f14,negative).
example(e425,f15,negative).
example(e425,f16,negative).
example(e425,f17,negative).
example(e425,f18,negative).
example(e425,f19,negative).
example(e425,f20,negative).
example(e425,f21,positive).
example(e425,f22,negative).
example(e425,f23,negative).
example(e425,f24,negative).
example(e425,f25,negative).
example(e425,f26,negative).
example(e425,f27,negative).
example(e425,f28,positive).
example(e425,f29,negative).
example(e425,f30,negative).
example(e425,f31,negative).
example(e425,f32,negative).
example(e425,f33,positive).
example(e425,f34,negative).
example(e426,f1,negative).
example(e426,f2,negative).
example(e426,f3,negative).
example(e426,f4,positive).
example(e426,f5,negative).
example(e426,f6,positive).
example(e426,f7,positive).
example(e426,f8,positive).
example(e426,f9,negative).
example(e426,f10,negative).
example(e426,f11,negative).
example(e426,f12,negative).
example(e426,f13,negative).
example(e426,f14,negative).
example(e426,f15,negative).
example(e426,f16,negative).
example(e426,f17,negative).
example(e426,f18,negative).
example(e426,f19,negative).
example(e426,f20,negative).
example(e426,f21,positive).
example(e426,f22,negative).
example(e426,f23,negative).
example(e426,f24,negative).
example(e426,f25,positive).
example(e426,f26,negative).
example(e426,f27,negative).
example(e426,f28,negative).
example(e426,f29,negative).
example(e426,f30,positive).
example(e426,f31,negative).
example(e426,f32,negative).
example(e426,f33,positive).
example(e426,f34,negative).
example(e427,f1,negative).
example(e427,f2,negative).
example(e427,f3,negative).
example(e427,f4,negative).
example(e427,f5,negative).
example(e427,f6,negative).
example(e427,f7,positive).
example(e427,f8,positive).
example(e427,f9,negative).
example(e427,f10,negative).
example(e427,f11,negative).
example(e427,f12,negative).
example(e427,f13,negative).
example(e427,f14,negative).
example(e427,f15,negative).
example(e427,f16,negative).
example(e427,f17,negative).
example(e427,f18,negative).
example(e427,f19,negative).
example(e427,f20,positive).
example(e427,f21,negative).
example(e427,f22,negative).
example(e427,f23,negative).
example(e427,f24,negative).
example(e427,f25,positive).
example(e427,f26,negative).
example(e427,f27,negative).
example(e427,f28,negative).
example(e427,f29,negative).
example(e427,f30,positive).
example(e427,f31,positive).
example(e427,f32,negative).
example(e427,f33,positive).
example(e427,f34,negative).
example(e428,f1,negative).
example(e428,f2,negative).
example(e428,f3,negative).
example(e428,f4,positive).
example(e428,f5,negative).
example(e428,f6,negative).
example(e428,f7,positive).
example(e428,f8,negative).
example(e428,f9,negative).
example(e428,f10,negative).
example(e428,f11,negative).
example(e428,f12,negative).
example(e428,f13,negative).
example(e428,f14,negative).
example(e428,f15,negative).
example(e428,f16,negative).
example(e428,f17,negative).
example(e428,f18,negative).
example(e428,f19,negative).
example(e428,f20,negative).
example(e428,f21,positive).
example(e428,f22,negative).
example(e428,f23,negative).
example(e428,f24,negative).
example(e428,f25,negative).
example(e428,f26,positive).
example(e428,f27,negative).
example(e428,f28,negative).
example(e428,f29,negative).
example(e428,f30,positive).
example(e428,f31,negative).
example(e428,f32,positive).
example(e428,f33,positive).
example(e428,f34,negative).
example(e429,f1,negative).
example(e429,f2,negative).
example(e429,f3,negative).
example(e429,f4,positive).
example(e429,f5,negative).
example(e429,f6,negative).
example(e429,f7,negative).
example(e429,f8,positive).
example(e429,f9,negative).
example(e429,f10,negative).
example(e429,f11,negative).
example(e429,f12,negative).
example(e429,f13,negative).
example(e429,f14,negative).
example(e429,f15,negative).
example(e429,f16,negative).
example(e429,f17,negative).
example(e429,f18,negative).
example(e429,f19,negative).
example(e429,f20,negative).
example(e429,f21,negative).
example(e429,f22,positive).
example(e429,f23,negative).
example(e429,f24,negative).
example(e429,f25,positive).
example(e429,f26,negative).
example(e429,f27,negative).
example(e429,f28,negative).
example(e429,f29,negative).
example(e429,f30,negative).
example(e429,f31,negative).
example(e429,f32,positive).
example(e429,f33,positive).
example(e429,f34,negative).
example(e430,f1,negative).
example(e430,f2,negative).
example(e430,f3,negative).
example(e430,f4,positive).
example(e430,f5,negative).
example(e430,f6,positive).
example(e430,f7,positive).
example(e430,f8,positive).
example(e430,f9,negative).
example(e430,f10,negative).
example(e430,f11,negative).
example(e430,f12,negative).
example(e430,f13,negative).
example(e430,f14,negative).
example(e430,f15,negative).
example(e430,f16,negative).
example(e430,f17,negative).
example(e430,f18,negative).
example(e430,f19,negative).
example(e430,f20,negative).
example(e430,f21,negative).
example(e430,f22,positive).
example(e430,f23,negative).
example(e430,f24,negative).
example(e430,f25,positive).
example(e430,f26,negative).
example(e430,f27,negative).
example(e430,f28,negative).
example(e430,f29,negative).
example(e430,f30,positive).
example(e430,f31,negative).
example(e430,f32,positive).
example(e430,f33,positive).
example(e430,f34,negative).
example(e431,f1,negative).
example(e431,f2,negative).
example(e431,f3,negative).
example(e431,f4,negative).
example(e431,f5,negative).
example(e431,f6,negative).
example(e431,f7,negative).
example(e431,f8,positive).
example(e431,f9,negative).
example(e431,f10,negative).
example(e431,f11,positive).
example(e431,f12,negative).
example(e431,f13,negative).
example(e431,f14,negative).
example(e431,f15,negative).
example(e431,f16,negative).
example(e431,f17,negative).
example(e431,f18,negative).
example(e431,f19,negative).
example(e431,f20,negative).
example(e431,f21,negative).
example(e431,f22,negative).
example(e431,f23,negative).
example(e431,f24,negative).
example(e431,f25,negative).
example(e431,f26,negative).
example(e431,f27,negative).
example(e431,f28,positive).
example(e431,f29,negative).
example(e431,f30,positive).
example(e431,f31,positive).
example(e431,f32,negative).
example(e431,f33,positive).
example(e431,f34,negative).
example(e432,f1,negative).
example(e432,f2,negative).
example(e432,f3,negative).
example(e432,f4,positive).
example(e432,f5,negative).
example(e432,f6,positive).
example(e432,f7,positive).
example(e432,f8,negative).
example(e432,f9,negative).
example(e432,f10,negative).
example(e432,f11,negative).
example(e432,f12,negative).
example(e432,f13,positive).
example(e432,f14,negative).
example(e432,f15,negative).
example(e432,f16,negative).
example(e432,f17,negative).
example(e432,f18,negative).
example(e432,f19,negative).
example(e432,f20,negative).
example(e432,f21,negative).
example(e432,f22,negative).
example(e432,f23,negative).
example(e432,f24,negative).
example(e432,f25,positive).
example(e432,f26,negative).
example(e432,f27,negative).
example(e432,f28,negative).
example(e432,f29,negative).
example(e432,f30,negative).
example(e432,f31,negative).
example(e432,f32,positive).
example(e432,f33,positive).
example(e432,f34,negative).
example(e433,f1,negative).
example(e433,f2,negative).
example(e433,f3,negative).
example(e433,f4,negative).
example(e433,f5,negative).
example(e433,f6,negative).
example(e433,f7,negative).
example(e433,f8,positive).
example(e433,f9,negative).
example(e433,f10,negative).
example(e433,f11,positive).
example(e433,f12,negative).
example(e433,f13,negative).
example(e433,f14,negative).
example(e433,f15,negative).
example(e433,f16,negative).
example(e433,f17,negative).
example(e433,f18,negative).
example(e433,f19,negative).
example(e433,f20,negative).
example(e433,f21,negative).
example(e433,f22,negative).
example(e433,f23,negative).
example(e433,f24,negative).
example(e433,f25,negative).
example(e433,f26,negative).
example(e433,f27,negative).
example(e433,f28,positive).
example(e433,f29,negative).
example(e433,f30,negative).
example(e433,f31,positive).
example(e433,f32,positive).
example(e433,f33,positive).
example(e433,f34,negative).
example(e434,f1,negative).
example(e434,f2,negative).
example(e434,f3,negative).
example(e434,f4,negative).
example(e434,f5,negative).
example(e434,f6,negative).
example(e434,f7,positive).
example(e434,f8,positive).
example(e434,f9,negative).
example(e434,f10,negative).
example(e434,f11,negative).
example(e434,f12,negative).
example(e434,f13,negative).
example(e434,f14,negative).
example(e434,f15,negative).
example(e434,f16,negative).
example(e434,f17,negative).
example(e434,f18,negative).
example(e434,f19,negative).
example(e434,f20,negative).
example(e434,f21,negative).
example(e434,f22,positive).
example(e434,f23,negative).
example(e434,f24,negative).
example(e434,f25,positive).
example(e434,f26,negative).
example(e434,f27,negative).
example(e434,f28,negative).
example(e434,f29,negative).
example(e434,f30,positive).
example(e434,f31,positive).
example(e434,f32,positive).
example(e434,f33,positive).
example(e434,f34,negative).
example(e435,f1,negative).
example(e435,f2,negative).
example(e435,f3,positive).
example(e435,f4,negative).
example(e435,f5,negative).
example(e435,f6,negative).
example(e435,f7,positive).
example(e435,f8,positive).
example(e435,f9,negative).
example(e435,f10,positive).
example(e435,f11,negative).
example(e435,f12,negative).
example(e435,f13,negative).
example(e435,f14,negative).
example(e435,f15,negative).
example(e435,f16,negative).
example(e435,f17,negative).
example(e435,f18,negative).
example(e435,f19,negative).
example(e435,f20,negative).
example(e435,f21,negative).
example(e435,f22,negative).
example(e435,f23,negative).
example(e435,f24,negative).
example(e435,f25,negative).
example(e435,f26,negative).
example(e435,f27,negative).
example(e435,f28,negative).
example(e435,f29,positive).
example(e435,f30,positive).
example(e435,f31,positive).
example(e435,f32,negative).
example(e435,f33,positive).
example(e435,f34,negative).
example(e436,f1,negative).
example(e436,f2,negative).
example(e436,f3,negative).
example(e436,f4,negative).
example(e436,f5,negative).
example(e436,f6,negative).
example(e436,f7,positive).
example(e436,f8,positive).
example(e436,f9,negative).
example(e436,f10,negative).
example(e436,f11,negative).
example(e436,f12,negative).
example(e436,f13,negative).
example(e436,f14,negative).
example(e436,f15,negative).
example(e436,f16,negative).
example(e436,f17,negative).
example(e436,f18,negative).
example(e436,f19,negative).
example(e436,f20,negative).
example(e436,f21,positive).
example(e436,f22,negative).
example(e436,f23,negative).
example(e436,f24,negative).
example(e436,f25,positive).
example(e436,f26,negative).
example(e436,f27,negative).
example(e436,f28,negative).
example(e436,f29,negative).
example(e436,f30,positive).
example(e436,f31,positive).
example(e436,f32,positive).
example(e436,f33,positive).
example(e436,f34,negative).
example(e437,f1,negative).
example(e437,f2,negative).
example(e437,f3,negative).
example(e437,f4,positive).
example(e437,f5,negative).
example(e437,f6,positive).
example(e437,f7,positive).
example(e437,f8,positive).
example(e437,f9,negative).
example(e437,f10,negative).
example(e437,f11,negative).
example(e437,f12,negative).
example(e437,f13,negative).
example(e437,f14,negative).
example(e437,f15,negative).
example(e437,f16,negative).
example(e437,f17,negative).
example(e437,f18,negative).
example(e437,f19,negative).
example(e437,f20,negative).
example(e437,f21,negative).
example(e437,f22,positive).
example(e437,f23,negative).
example(e437,f24,negative).
example(e437,f25,positive).
example(e437,f26,negative).
example(e437,f27,negative).
example(e437,f28,negative).
example(e437,f29,negative).
example(e437,f30,positive).
example(e437,f31,negative).
example(e437,f32,positive).
example(e437,f33,positive).
example(e437,f34,negative).
example(e438,f1,negative).
example(e438,f2,negative).
example(e438,f3,negative).
example(e438,f4,negative).
example(e438,f5,negative).
example(e438,f6,negative).
example(e438,f7,positive).
example(e438,f8,positive).
example(e438,f9,negative).
example(e438,f10,negative).
example(e438,f11,positive).
example(e438,f12,negative).
example(e438,f13,negative).
example(e438,f14,negative).
example(e438,f15,negative).
example(e438,f16,negative).
example(e438,f17,negative).
example(e438,f18,negative).
example(e438,f19,negative).
example(e438,f20,negative).
example(e438,f21,negative).
example(e438,f22,negative).
example(e438,f23,negative).
example(e438,f24,negative).
example(e438,f25,negative).
example(e438,f26,negative).
example(e438,f27,negative).
example(e438,f28,positive).
example(e438,f29,negative).
example(e438,f30,positive).
example(e438,f31,positive).
example(e438,f32,positive).
example(e438,f33,positive).
example(e438,f34,negative).
example(e439,f1,negative).
example(e439,f2,negative).
example(e439,f3,negative).
example(e439,f4,negative).
example(e439,f5,negative).
example(e439,f6,negative).
example(e439,f7,positive).
example(e439,f8,positive).
example(e439,f9,negative).
example(e439,f10,negative).
example(e439,f11,negative).
example(e439,f12,negative).
example(e439,f13,negative).
example(e439,f14,negative).
example(e439,f15,negative).
example(e439,f16,negative).
example(e439,f17,negative).
example(e439,f18,negative).
example(e439,f19,negative).
example(e439,f20,negative).
example(e439,f21,positive).
example(e439,f22,negative).
example(e439,f23,negative).
example(e439,f24,negative).
example(e439,f25,positive).
example(e439,f26,negative).
example(e439,f27,negative).
example(e439,f28,negative).
example(e439,f29,negative).
example(e439,f30,positive).
example(e439,f31,positive).
example(e439,f32,negative).
example(e439,f33,positive).
example(e439,f34,negative).
example(e440,f1,negative).
example(e440,f2,negative).
example(e440,f3,negative).
example(e440,f4,positive).
example(e440,f5,negative).
example(e440,f6,negative).
example(e440,f7,positive).
example(e440,f8,positive).
example(e440,f9,negative).
example(e440,f10,negative).
example(e440,f11,negative).
example(e440,f12,negative).
example(e440,f13,negative).
example(e440,f14,negative).
example(e440,f15,negative).
example(e440,f16,negative).
example(e440,f17,positive).
example(e440,f18,negative).
example(e440,f19,negative).
example(e440,f20,negative).
example(e440,f21,negative).
example(e440,f22,negative).
example(e440,f23,negative).
example(e440,f24,negative).
example(e440,f25,positive).
example(e440,f26,negative).
example(e440,f27,negative).
example(e440,f28,negative).
example(e440,f29,negative).
example(e440,f30,negative).
example(e440,f31,negative).
example(e440,f32,positive).
example(e440,f33,positive).
example(e440,f34,negative).
example(e441,f1,negative).
example(e441,f2,negative).
example(e441,f3,negative).
example(e441,f4,positive).
example(e441,f5,negative).
example(e441,f6,negative).
example(e441,f7,positive).
example(e441,f8,positive).
example(e441,f9,negative).
example(e441,f10,negative).
example(e441,f11,negative).
example(e441,f12,negative).
example(e441,f13,negative).
example(e441,f14,positive).
example(e441,f15,negative).
example(e441,f16,negative).
example(e441,f17,negative).
example(e441,f18,negative).
example(e441,f19,negative).
example(e441,f20,negative).
example(e441,f21,negative).
example(e441,f22,negative).
example(e441,f23,negative).
example(e441,f24,negative).
example(e441,f25,positive).
example(e441,f26,negative).
example(e441,f27,negative).
example(e441,f28,negative).
example(e441,f29,negative).
example(e441,f30,positive).
example(e441,f31,negative).
example(e441,f32,negative).
example(e441,f33,positive).
example(e441,f34,negative).
example(e442,f1,negative).
example(e442,f2,negative).
example(e442,f3,negative).
example(e442,f4,positive).
example(e442,f5,negative).
example(e442,f6,positive).
example(e442,f7,positive).
example(e442,f8,positive).
example(e442,f9,negative).
example(e442,f10,negative).
example(e442,f11,negative).
example(e442,f12,negative).
example(e442,f13,negative).
example(e442,f14,negative).
example(e442,f15,negative).
example(e442,f16,positive).
example(e442,f17,negative).
example(e442,f18,negative).
example(e442,f19,negative).
example(e442,f20,negative).
example(e442,f21,negative).
example(e442,f22,negative).
example(e442,f23,negative).
example(e442,f24,negative).
example(e442,f25,positive).
example(e442,f26,negative).
example(e442,f27,negative).
example(e442,f28,negative).
example(e442,f29,negative).
example(e442,f30,negative).
example(e442,f31,negative).
example(e442,f32,positive).
example(e442,f33,positive).
example(e442,f34,negative).
example(e443,f1,negative).
example(e443,f2,negative).
example(e443,f3,negative).
example(e443,f4,positive).
example(e443,f5,positive).
example(e443,f6,negative).
example(e443,f7,positive).
example(e443,f8,positive).
example(e443,f9,negative).
example(e443,f10,negative).
example(e443,f11,negative).
example(e443,f12,negative).
example(e443,f13,positive).
example(e443,f14,negative).
example(e443,f15,negative).
example(e443,f16,negative).
example(e443,f17,negative).
example(e443,f18,negative).
example(e443,f19,negative).
example(e443,f20,negative).
example(e443,f21,negative).
example(e443,f22,negative).
example(e443,f23,negative).
example(e443,f24,negative).
example(e443,f25,positive).
example(e443,f26,negative).
example(e443,f27,negative).
example(e443,f28,negative).
example(e443,f29,negative).
example(e443,f30,negative).
example(e443,f31,negative).
example(e443,f32,negative).
example(e443,f33,positive).
example(e443,f34,negative).
example(e444,f1,negative).
example(e444,f2,negative).
example(e444,f3,negative).
example(e444,f4,positive).
example(e444,f5,negative).
example(e444,f6,negative).
example(e444,f7,positive).
example(e444,f8,positive).
example(e444,f9,negative).
example(e444,f10,negative).
example(e444,f11,negative).
example(e444,f12,negative).
example(e444,f13,negative).
example(e444,f14,negative).
example(e444,f15,negative).
example(e444,f16,negative).
example(e444,f17,negative).
example(e444,f18,negative).
example(e444,f19,negative).
example(e444,f20,negative).
example(e444,f21,positive).
example(e444,f22,negative).
example(e444,f23,negative).
example(e444,f24,negative).
example(e444,f25,negative).
example(e444,f26,negative).
example(e444,f27,negative).
example(e444,f28,positive).
example(e444,f29,negative).
example(e444,f30,positive).
example(e444,f31,negative).
example(e444,f32,negative).
example(e444,f33,positive).
example(e444,f34,negative).
example(e445,f1,negative).
example(e445,f2,negative).
example(e445,f3,negative).
example(e445,f4,positive).
example(e445,f5,negative).
example(e445,f6,positive).
example(e445,f7,positive).
example(e445,f8,positive).
example(e445,f9,negative).
example(e445,f10,negative).
example(e445,f11,positive).
example(e445,f12,negative).
example(e445,f13,negative).
example(e445,f14,negative).
example(e445,f15,negative).
example(e445,f16,negative).
example(e445,f17,negative).
example(e445,f18,negative).
example(e445,f19,negative).
example(e445,f20,negative).
example(e445,f21,negative).
example(e445,f22,negative).
example(e445,f23,negative).
example(e445,f24,negative).
example(e445,f25,positive).
example(e445,f26,negative).
example(e445,f27,negative).
example(e445,f28,negative).
example(e445,f29,negative).
example(e445,f30,negative).
example(e445,f31,negative).
example(e445,f32,negative).
example(e445,f33,positive).
example(e445,f34,negative).
example(e446,f1,negative).
example(e446,f2,negative).
example(e446,f3,negative).
example(e446,f4,negative).
example(e446,f5,negative).
example(e446,f6,positive).
example(e446,f7,positive).
example(e446,f8,positive).
example(e446,f9,negative).
example(e446,f10,negative).
example(e446,f11,positive).
example(e446,f12,negative).
example(e446,f13,negative).
example(e446,f14,negative).
example(e446,f15,negative).
example(e446,f16,negative).
example(e446,f17,negative).
example(e446,f18,negative).
example(e446,f19,negative).
example(e446,f20,negative).
example(e446,f21,negative).
example(e446,f22,negative).
example(e446,f23,negative).
example(e446,f24,negative).
example(e446,f25,positive).
example(e446,f26,negative).
example(e446,f27,negative).
example(e446,f28,negative).
example(e446,f29,negative).
example(e446,f30,positive).
example(e446,f31,positive).
example(e446,f32,positive).
example(e446,f33,positive).
example(e446,f34,negative).
example(e447,f1,negative).
example(e447,f2,negative).
example(e447,f3,negative).
example(e447,f4,positive).
example(e447,f5,positive).
example(e447,f6,negative).
example(e447,f7,positive).
example(e447,f8,positive).
example(e447,f9,negative).
example(e447,f10,negative).
example(e447,f11,negative).
example(e447,f12,negative).
example(e447,f13,negative).
example(e447,f14,positive).
example(e447,f15,negative).
example(e447,f16,negative).
example(e447,f17,negative).
example(e447,f18,negative).
example(e447,f19,negative).
example(e447,f20,negative).
example(e447,f21,negative).
example(e447,f22,negative).
example(e447,f23,negative).
example(e447,f24,negative).
example(e447,f25,negative).
example(e447,f26,negative).
example(e447,f27,negative).
example(e447,f28,positive).
example(e447,f29,negative).
example(e447,f30,positive).
example(e447,f31,negative).
example(e447,f32,negative).
example(e447,f33,positive).
example(e447,f34,negative).
example(e448,f1,negative).
example(e448,f2,negative).
example(e448,f3,positive).
example(e448,f4,positive).
example(e448,f5,positive).
example(e448,f6,negative).
example(e448,f7,positive).
example(e448,f8,positive).
example(e448,f9,negative).
example(e448,f10,positive).
example(e448,f11,negative).
example(e448,f12,negative).
example(e448,f13,negative).
example(e448,f14,negative).
example(e448,f15,negative).
example(e448,f16,negative).
example(e448,f17,negative).
example(e448,f18,negative).
example(e448,f19,negative).
example(e448,f20,negative).
example(e448,f21,negative).
example(e448,f22,negative).
example(e448,f23,negative).
example(e448,f24,negative).
example(e448,f25,negative).
example(e448,f26,negative).
example(e448,f27,negative).
example(e448,f28,negative).
example(e448,f29,positive).
example(e448,f30,negative).
example(e448,f31,negative).
example(e448,f32,negative).
example(e448,f33,positive).
example(e448,f34,negative).
example(e449,f1,negative).
example(e449,f2,negative).
example(e449,f3,negative).
example(e449,f4,positive).
example(e449,f5,negative).
example(e449,f6,positive).
example(e449,f7,positive).
example(e449,f8,positive).
example(e449,f9,negative).
example(e449,f10,negative).
example(e449,f11,negative).
example(e449,f12,negative).
example(e449,f13,negative).
example(e449,f14,negative).
example(e449,f15,negative).
example(e449,f16,negative).
example(e449,f17,negative).
example(e449,f18,negative).
example(e449,f19,negative).
example(e449,f20,positive).
example(e449,f21,negative).
example(e449,f22,negative).
example(e449,f23,negative).
example(e449,f24,negative).
example(e449,f25,positive).
example(e449,f26,negative).
example(e449,f27,negative).
example(e449,f28,negative).
example(e449,f29,negative).
example(e449,f30,negative).
example(e449,f31,negative).
example(e449,f32,positive).
example(e449,f33,negative).
example(e449,f34,negative).
example(e450,f1,negative).
example(e450,f2,negative).
example(e450,f3,negative).
example(e450,f4,positive).
example(e450,f5,negative).
example(e450,f6,negative).
example(e450,f7,negative).
example(e450,f8,positive).
example(e450,f9,negative).
example(e450,f10,negative).
example(e450,f11,negative).
example(e450,f12,negative).
example(e450,f13,negative).
example(e450,f14,negative).
example(e450,f15,negative).
example(e450,f16,negative).
example(e450,f17,negative).
example(e450,f18,negative).
example(e450,f19,positive).
example(e450,f20,negative).
example(e450,f21,negative).
example(e450,f22,negative).
example(e450,f23,negative).
example(e450,f24,negative).
example(e450,f25,positive).
example(e450,f26,negative).
example(e450,f27,negative).
example(e450,f28,negative).
example(e450,f29,negative).
example(e450,f30,negative).
example(e450,f31,negative).
example(e450,f32,negative).
example(e450,f33,positive).
example(e450,f34,negative).
example(e451,f1,negative).
example(e451,f2,negative).
example(e451,f3,negative).
example(e451,f4,negative).
example(e451,f5,negative).
example(e451,f6,negative).
example(e451,f7,positive).
example(e451,f8,positive).
example(e451,f9,negative).
example(e451,f10,negative).
example(e451,f11,negative).
example(e451,f12,negative).
example(e451,f13,negative).
example(e451,f14,negative).
example(e451,f15,negative).
example(e451,f16,negative).
example(e451,f17,negative).
example(e451,f18,negative).
example(e451,f19,negative).
example(e451,f20,negative).
example(e451,f21,negative).
example(e451,f22,positive).
example(e451,f23,negative).
example(e451,f24,negative).
example(e451,f25,positive).
example(e451,f26,negative).
example(e451,f27,negative).
example(e451,f28,negative).
example(e451,f29,negative).
example(e451,f30,negative).
example(e451,f31,positive).
example(e451,f32,negative).
example(e451,f33,positive).
example(e451,f34,negative).
example(e452,f1,negative).
example(e452,f2,negative).
example(e452,f3,negative).
example(e452,f4,positive).
example(e452,f5,negative).
example(e452,f6,positive).
example(e452,f7,positive).
example(e452,f8,positive).
example(e452,f9,negative).
example(e452,f10,negative).
example(e452,f11,negative).
example(e452,f12,negative).
example(e452,f13,negative).
example(e452,f14,negative).
example(e452,f15,negative).
example(e452,f16,negative).
example(e452,f17,negative).
example(e452,f18,negative).
example(e452,f19,positive).
example(e452,f20,negative).
example(e452,f21,negative).
example(e452,f22,negative).
example(e452,f23,negative).
example(e452,f24,negative).
example(e452,f25,positive).
example(e452,f26,negative).
example(e452,f27,negative).
example(e452,f28,negative).
example(e452,f29,negative).
example(e452,f30,positive).
example(e452,f31,negative).
example(e452,f32,positive).
example(e452,f33,positive).
example(e452,f34,negative).
example(e453,f1,negative).
example(e453,f2,positive).
example(e453,f3,positive).
example(e453,f4,positive).
example(e453,f5,negative).
example(e453,f6,positive).
example(e453,f7,negative).
example(e453,f8,positive).
example(e453,f9,negative).
example(e453,f10,negative).
example(e453,f11,negative).
example(e453,f12,negative).
example(e453,f13,negative).
example(e453,f14,negative).
example(e453,f15,negative).
example(e453,f16,negative).
example(e453,f17,negative).
example(e453,f18,negative).
example(e453,f19,negative).
example(e453,f20,negative).
example(e453,f21,positive).
example(e453,f22,negative).
example(e453,f23,negative).
example(e453,f24,negative).
example(e453,f25,positive).
example(e453,f26,negative).
example(e453,f27,negative).
example(e453,f28,negative).
example(e453,f29,negative).
example(e453,f30,negative).
example(e453,f31,negative).
example(e453,f32,negative).
example(e453,f33,negative).
example(e453,f34,positive).
example(e454,f1,negative).
example(e454,f2,negative).
example(e454,f3,negative).
example(e454,f4,positive).
example(e454,f5,negative).
example(e454,f6,positive).
example(e454,f7,positive).
example(e454,f8,positive).
example(e454,f9,negative).
example(e454,f10,negative).
example(e454,f11,negative).
example(e454,f12,negative).
example(e454,f13,negative).
example(e454,f14,negative).
example(e454,f15,negative).
example(e454,f16,positive).
example(e454,f17,negative).
example(e454,f18,negative).
example(e454,f19,negative).
example(e454,f20,negative).
example(e454,f21,negative).
example(e454,f22,negative).
example(e454,f23,negative).
example(e454,f24,negative).
example(e454,f25,negative).
example(e454,f26,negative).
example(e454,f27,negative).
example(e454,f28,positive).
example(e454,f29,negative).
example(e454,f30,positive).
example(e454,f31,negative).
example(e454,f32,negative).
example(e454,f33,positive).
example(e454,f34,negative).
example(e455,f1,negative).
example(e455,f2,negative).
example(e455,f3,negative).
example(e455,f4,positive).
example(e455,f5,negative).
example(e455,f6,positive).
example(e455,f7,negative).
example(e455,f8,negative).
example(e455,f9,negative).
example(e455,f10,negative).
example(e455,f11,positive).
example(e455,f12,negative).
example(e455,f13,negative).
example(e455,f14,negative).
example(e455,f15,negative).
example(e455,f16,negative).
example(e455,f17,negative).
example(e455,f18,negative).
example(e455,f19,negative).
example(e455,f20,negative).
example(e455,f21,negative).
example(e455,f22,negative).
example(e455,f23,negative).
example(e455,f24,negative).
example(e455,f25,positive).
example(e455,f26,negative).
example(e455,f27,negative).
example(e455,f28,negative).
example(e455,f29,negative).
example(e455,f30,positive).
example(e455,f31,negative).
example(e455,f32,positive).
example(e455,f33,positive).
example(e455,f34,negative).
example(e456,f1,negative).
example(e456,f2,negative).
example(e456,f3,negative).
example(e456,f4,negative).
example(e456,f5,negative).
example(e456,f6,negative).
example(e456,f7,positive).
example(e456,f8,positive).
example(e456,f9,negative).
example(e456,f10,positive).
example(e456,f11,negative).
example(e456,f12,negative).
example(e456,f13,negative).
example(e456,f14,negative).
example(e456,f15,negative).
example(e456,f16,negative).
example(e456,f17,negative).
example(e456,f18,negative).
example(e456,f19,negative).
example(e456,f20,negative).
example(e456,f21,negative).
example(e456,f22,negative).
example(e456,f23,positive).
example(e456,f24,negative).
example(e456,f25,negative).
example(e456,f26,negative).
example(e456,f27,negative).
example(e456,f28,negative).
example(e456,f29,negative).
example(e456,f30,negative).
example(e456,f31,positive).
example(e456,f32,negative).
example(e456,f33,positive).
example(e456,f34,negative).
example(e457,f1,negative).
example(e457,f2,negative).
example(e457,f3,negative).
example(e457,f4,positive).
example(e457,f5,negative).
example(e457,f6,positive).
example(e457,f7,positive).
example(e457,f8,positive).
example(e457,f9,negative).
example(e457,f10,negative).
example(e457,f11,negative).
example(e457,f12,negative).
example(e457,f13,negative).
example(e457,f14,negative).
example(e457,f15,negative).
example(e457,f16,positive).
example(e457,f17,negative).
example(e457,f18,negative).
example(e457,f19,negative).
example(e457,f20,negative).
example(e457,f21,negative).
example(e457,f22,negative).
example(e457,f23,negative).
example(e457,f24,negative).
example(e457,f25,negative).
example(e457,f26,negative).
example(e457,f27,negative).
example(e457,f28,positive).
example(e457,f29,negative).
example(e457,f30,positive).
example(e457,f31,negative).
example(e457,f32,positive).
example(e457,f33,positive).
example(e457,f34,negative).
example(e458,f1,negative).
example(e458,f2,negative).
example(e458,f3,negative).
example(e458,f4,negative).
example(e458,f5,negative).
example(e458,f6,negative).
example(e458,f7,negative).
example(e458,f8,positive).
example(e458,f9,negative).
example(e458,f10,negative).
example(e458,f11,negative).
example(e458,f12,negative).
example(e458,f13,negative).
example(e458,f14,positive).
example(e458,f15,negative).
example(e458,f16,negative).
example(e458,f17,negative).
example(e458,f18,negative).
example(e458,f19,negative).
example(e458,f20,negative).
example(e458,f21,negative).
example(e458,f22,negative).
example(e458,f23,negative).
example(e458,f24,negative).
example(e458,f25,negative).
example(e458,f26,negative).
example(e458,f27,negative).
example(e458,f28,positive).
example(e458,f29,negative).
example(e458,f30,positive).
example(e458,f31,positive).
example(e458,f32,positive).
example(e458,f33,positive).
example(e458,f34,negative).
example(e459,f1,negative).
example(e459,f2,negative).
example(e459,f3,negative).
example(e459,f4,positive).
example(e459,f5,negative).
example(e459,f6,negative).
example(e459,f7,positive).
example(e459,f8,positive).
example(e459,f9,negative).
example(e459,f10,negative).
example(e459,f11,negative).
example(e459,f12,negative).
example(e459,f13,negative).
example(e459,f14,negative).
example(e459,f15,negative).
example(e459,f16,positive).
example(e459,f17,negative).
example(e459,f18,negative).
example(e459,f19,negative).
example(e459,f20,negative).
example(e459,f21,negative).
example(e459,f22,negative).
example(e459,f23,negative).
example(e459,f24,negative).
example(e459,f25,negative).
example(e459,f26,positive).
example(e459,f27,negative).
example(e459,f28,negative).
example(e459,f29,negative).
example(e459,f30,negative).
example(e459,f31,negative).
example(e459,f32,positive).
example(e459,f33,positive).
example(e459,f34,negative).
example(e460,f1,negative).
example(e460,f2,negative).
example(e460,f3,negative).
example(e460,f4,negative).
example(e460,f5,negative).
example(e460,f6,negative).
example(e460,f7,positive).
example(e460,f8,positive).
example(e460,f9,negative).
example(e460,f10,negative).
example(e460,f11,negative).
example(e460,f12,negative).
example(e460,f13,negative).
example(e460,f14,negative).
example(e460,f15,negative).
example(e460,f16,positive).
example(e460,f17,negative).
example(e460,f18,negative).
example(e460,f19,negative).
example(e460,f20,negative).
example(e460,f21,negative).
example(e460,f22,negative).
example(e460,f23,negative).
example(e460,f24,negative).
example(e460,f25,positive).
example(e460,f26,negative).
example(e460,f27,negative).
example(e460,f28,negative).
example(e460,f29,negative).
example(e460,f30,positive).
example(e460,f31,positive).
example(e460,f32,negative).
example(e460,f33,positive).
example(e460,f34,negative).
example(e461,f1,negative).
example(e461,f2,negative).
example(e461,f3,negative).
example(e461,f4,negative).
example(e461,f5,negative).
example(e461,f6,negative).
example(e461,f7,positive).
example(e461,f8,positive).
example(e461,f9,negative).
example(e461,f10,negative).
example(e461,f11,negative).
example(e461,f12,negative).
example(e461,f13,negative).
example(e461,f14,negative).
example(e461,f15,negative).
example(e461,f16,negative).
example(e461,f17,positive).
example(e461,f18,negative).
example(e461,f19,negative).
example(e461,f20,negative).
example(e461,f21,negative).
example(e461,f22,negative).
example(e461,f23,negative).
example(e461,f24,negative).
example(e461,f25,positive).
example(e461,f26,negative).
example(e461,f27,negative).
example(e461,f28,negative).
example(e461,f29,negative).
example(e461,f30,negative).
example(e461,f31,positive).
example(e461,f32,positive).
example(e461,f33,positive).
example(e461,f34,negative).
example(e462,f1,negative).
example(e462,f2,negative).
example(e462,f3,negative).
example(e462,f4,positive).
example(e462,f5,positive).
example(e462,f6,positive).
example(e462,f7,negative).
example(e462,f8,positive).
example(e462,f9,negative).
example(e462,f10,negative).
example(e462,f11,negative).
example(e462,f12,negative).
example(e462,f13,negative).
example(e462,f14,negative).
example(e462,f15,negative).
example(e462,f16,negative).
example(e462,f17,negative).
example(e462,f18,negative).
example(e462,f19,positive).
example(e462,f20,negative).
example(e462,f21,negative).
example(e462,f22,negative).
example(e462,f23,negative).
example(e462,f24,negative).
example(e462,f25,positive).
example(e462,f26,negative).
example(e462,f27,negative).
example(e462,f28,negative).
example(e462,f29,negative).
example(e462,f30,positive).
example(e462,f31,negative).
example(e462,f32,positive).
example(e462,f33,positive).
example(e462,f34,negative).
example(e463,f1,negative).
example(e463,f2,negative).
example(e463,f3,negative).
example(e463,f4,positive).
example(e463,f5,negative).
example(e463,f6,negative).
example(e463,f7,positive).
example(e463,f8,positive).
example(e463,f9,negative).
example(e463,f10,negative).
example(e463,f11,positive).
example(e463,f12,negative).
example(e463,f13,negative).
example(e463,f14,negative).
example(e463,f15,negative).
example(e463,f16,negative).
example(e463,f17,negative).
example(e463,f18,negative).
example(e463,f19,negative).
example(e463,f20,negative).
example(e463,f21,negative).
example(e463,f22,negative).
example(e463,f23,negative).
example(e463,f24,negative).
example(e463,f25,positive).
example(e463,f26,negative).
example(e463,f27,negative).
example(e463,f28,negative).
example(e463,f29,negative).
example(e463,f30,negative).
example(e463,f31,negative).
example(e463,f32,negative).
example(e463,f33,positive).
example(e463,f34,negative).
example(e464,f1,negative).
example(e464,f2,negative).
example(e464,f3,negative).
example(e464,f4,negative).
example(e464,f5,negative).
example(e464,f6,negative).
example(e464,f7,positive).
example(e464,f8,positive).
example(e464,f9,negative).
example(e464,f10,negative).
example(e464,f11,negative).
example(e464,f12,negative).
example(e464,f13,negative).
example(e464,f14,negative).
example(e464,f15,positive).
example(e464,f16,negative).
example(e464,f17,negative).
example(e464,f18,negative).
example(e464,f19,negative).
example(e464,f20,negative).
example(e464,f21,negative).
example(e464,f22,negative).
example(e464,f23,negative).
example(e464,f24,negative).
example(e464,f25,positive).
example(e464,f26,negative).
example(e464,f27,negative).
example(e464,f28,negative).
example(e464,f29,negative).
example(e464,f30,positive).
example(e464,f31,positive).
example(e464,f32,negative).
example(e464,f33,positive).
example(e464,f34,negative).
example(e465,f1,negative).
example(e465,f2,negative).
example(e465,f3,negative).
example(e465,f4,negative).
example(e465,f5,positive).
example(e465,f6,negative).
example(e465,f7,negative).
example(e465,f8,positive).
example(e465,f9,negative).
example(e465,f10,negative).
example(e465,f11,negative).
example(e465,f12,negative).
example(e465,f13,negative).
example(e465,f14,negative).
example(e465,f15,negative).
example(e465,f16,negative).
example(e465,f17,negative).
example(e465,f18,negative).
example(e465,f19,negative).
example(e465,f20,negative).
example(e465,f21,negative).
example(e465,f22,negative).
example(e465,f23,negative).
example(e465,f24,negative).
example(e465,f25,negative).
example(e465,f26,negative).
example(e465,f27,negative).
example(e465,f28,negative).
example(e465,f29,negative).
example(e465,f30,negative).
example(e465,f31,positive).
example(e465,f32,negative).
example(e465,f33,positive).
example(e465,f34,negative).
example(e466,f1,negative).
example(e466,f2,negative).
example(e466,f3,negative).
example(e466,f4,positive).
example(e466,f5,negative).
example(e466,f6,positive).
example(e466,f7,positive).
example(e466,f8,positive).
example(e466,f9,negative).
example(e466,f10,negative).
example(e466,f11,positive).
example(e466,f12,negative).
example(e466,f13,negative).
example(e466,f14,negative).
example(e466,f15,negative).
example(e466,f16,negative).
example(e466,f17,negative).
example(e466,f18,negative).
example(e466,f19,negative).
example(e466,f20,negative).
example(e466,f21,negative).
example(e466,f22,negative).
example(e466,f23,negative).
example(e466,f24,negative).
example(e466,f25,positive).
example(e466,f26,negative).
example(e466,f27,negative).
example(e466,f28,negative).
example(e466,f29,negative).
example(e466,f30,positive).
example(e466,f31,negative).
example(e466,f32,positive).
example(e466,f33,positive).
example(e466,f34,negative).
example(e467,f1,negative).
example(e467,f2,negative).
example(e467,f3,positive).
example(e467,f4,negative).
example(e467,f5,positive).
example(e467,f6,negative).
example(e467,f7,negative).
example(e467,f8,positive).
example(e467,f9,negative).
example(e467,f10,negative).
example(e467,f11,negative).
example(e467,f12,negative).
example(e467,f13,negative).
example(e467,f14,negative).
example(e467,f15,negative).
example(e467,f16,negative).
example(e467,f17,negative).
example(e467,f18,negative).
example(e467,f19,negative).
example(e467,f20,negative).
example(e467,f21,negative).
example(e467,f22,negative).
example(e467,f23,negative).
example(e467,f24,negative).
example(e467,f25,negative).
example(e467,f26,negative).
example(e467,f27,negative).
example(e467,f28,negative).
example(e467,f29,negative).
example(e467,f30,positive).
example(e467,f31,positive).
example(e467,f32,positive).
example(e467,f33,positive).
example(e467,f34,negative).
example(e468,f1,negative).
example(e468,f2,negative).
example(e468,f3,negative).
example(e468,f4,negative).
example(e468,f5,negative).
example(e468,f6,negative).
example(e468,f7,positive).
example(e468,f8,negative).
example(e468,f9,negative).
example(e468,f10,negative).
example(e468,f11,negative).
example(e468,f12,negative).
example(e468,f13,negative).
example(e468,f14,negative).
example(e468,f15,negative).
example(e468,f16,positive).
example(e468,f17,negative).
example(e468,f18,negative).
example(e468,f19,negative).
example(e468,f20,negative).
example(e468,f21,negative).
example(e468,f22,negative).
example(e468,f23,negative).
example(e468,f24,negative).
example(e468,f25,negative).
example(e468,f26,positive).
example(e468,f27,negative).
example(e468,f28,negative).
example(e468,f29,negative).
example(e468,f30,positive).
example(e468,f31,positive).
example(e468,f32,positive).
example(e468,f33,positive).
example(e468,f34,negative).
example(e469,f1,negative).
example(e469,f2,negative).
example(e469,f3,negative).
example(e469,f4,positive).
example(e469,f5,negative).
example(e469,f6,positive).
example(e469,f7,positive).
example(e469,f8,positive).
example(e469,f9,negative).
example(e469,f10,negative).
example(e469,f11,positive).
example(e469,f12,negative).
example(e469,f13,negative).
example(e469,f14,negative).
example(e469,f15,negative).
example(e469,f16,negative).
example(e469,f17,negative).
example(e469,f18,negative).
example(e469,f19,negative).
example(e469,f20,negative).
example(e469,f21,negative).
example(e469,f22,negative).
example(e469,f23,negative).
example(e469,f24,negative).
example(e469,f25,negative).
example(e469,f26,negative).
example(e469,f27,negative).
example(e469,f28,positive).
example(e469,f29,negative).
example(e469,f30,positive).
example(e469,f31,negative).
example(e469,f32,positive).
example(e469,f33,positive).
example(e469,f34,negative).
example(e470,f1,negative).
example(e470,f2,negative).
example(e470,f3,negative).
example(e470,f4,positive).
example(e470,f5,negative).
example(e470,f6,negative).
example(e470,f7,negative).
example(e470,f8,negative).
example(e470,f9,negative).
example(e470,f10,negative).
example(e470,f11,negative).
example(e470,f12,negative).
example(e470,f13,negative).
example(e470,f14,negative).
example(e470,f15,negative).
example(e470,f16,negative).
example(e470,f17,positive).
example(e470,f18,negative).
example(e470,f19,negative).
example(e470,f20,negative).
example(e470,f21,negative).
example(e470,f22,negative).
example(e470,f23,negative).
example(e470,f24,negative).
example(e470,f25,negative).
example(e470,f26,negative).
example(e470,f27,negative).
example(e470,f28,positive).
example(e470,f29,negative).
example(e470,f30,negative).
example(e470,f31,negative).
example(e470,f32,positive).
example(e470,f33,positive).
example(e470,f34,negative).
example(e471,f1,negative).
example(e471,f2,negative).
example(e471,f3,negative).
example(e471,f4,negative).
example(e471,f5,negative).
example(e471,f6,negative).
example(e471,f7,positive).
example(e471,f8,positive).
example(e471,f9,negative).
example(e471,f10,negative).
example(e471,f11,negative).
example(e471,f12,negative).
example(e471,f13,negative).
example(e471,f14,negative).
example(e471,f15,negative).
example(e471,f16,negative).
example(e471,f17,negative).
example(e471,f18,negative).
example(e471,f19,negative).
example(e471,f20,negative).
example(e471,f21,positive).
example(e471,f22,negative).
example(e471,f23,negative).
example(e471,f24,negative).
example(e471,f25,positive).
example(e471,f26,negative).
example(e471,f27,negative).
example(e471,f28,negative).
example(e471,f29,negative).
example(e471,f30,positive).
example(e471,f31,positive).
example(e471,f32,positive).
example(e471,f33,positive).
example(e471,f34,negative).
example(e472,f1,negative).
example(e472,f2,negative).
example(e472,f3,negative).
example(e472,f4,negative).
example(e472,f5,positive).
example(e472,f6,negative).
example(e472,f7,positive).
example(e472,f8,positive).
example(e472,f9,negative).
example(e472,f10,negative).
example(e472,f11,negative).
example(e472,f12,negative).
example(e472,f13,negative).
example(e472,f14,negative).
example(e472,f15,negative).
example(e472,f16,negative).
example(e472,f17,negative).
example(e472,f18,negative).
example(e472,f19,negative).
example(e472,f20,negative).
example(e472,f21,negative).
example(e472,f22,positive).
example(e472,f23,negative).
example(e472,f24,negative).
example(e472,f25,negative).
example(e472,f26,negative).
example(e472,f27,negative).
example(e472,f28,positive).
example(e472,f29,negative).
example(e472,f30,positive).
example(e472,f31,positive).
example(e472,f32,negative).
example(e472,f33,positive).
example(e472,f34,negative).
example(e473,f1,negative).
example(e473,f2,negative).
example(e473,f3,negative).
example(e473,f4,negative).
example(e473,f5,positive).
example(e473,f6,negative).
example(e473,f7,positive).
example(e473,f8,positive).
example(e473,f9,negative).
example(e473,f10,negative).
example(e473,f11,positive).
example(e473,f12,negative).
example(e473,f13,negative).
example(e473,f14,negative).
example(e473,f15,negative).
example(e473,f16,negative).
example(e473,f17,negative).
example(e473,f18,negative).
example(e473,f19,negative).
example(e473,f20,negative).
example(e473,f21,negative).
example(e473,f22,negative).
example(e473,f23,negative).
example(e473,f24,negative).
example(e473,f25,positive).
example(e473,f26,negative).
example(e473,f27,negative).
example(e473,f28,negative).
example(e473,f29,negative).
example(e473,f30,positive).
example(e473,f31,positive).
example(e473,f32,positive).
example(e473,f33,positive).
example(e473,f34,negative).
example(e474,f1,negative).
example(e474,f2,negative).
example(e474,f3,positive).
example(e474,f4,negative).
example(e474,f5,negative).
example(e474,f6,negative).
example(e474,f7,positive).
example(e474,f8,negative).
example(e474,f9,negative).
example(e474,f10,negative).
example(e474,f11,negative).
example(e474,f12,negative).
example(e474,f13,negative).
example(e474,f14,negative).
example(e474,f15,negative).
example(e474,f16,negative).
example(e474,f17,negative).
example(e474,f18,negative).
example(e474,f19,negative).
example(e474,f20,negative).
example(e474,f21,negative).
example(e474,f22,negative).
example(e474,f23,negative).
example(e474,f24,negative).
example(e474,f25,negative).
example(e474,f26,negative).
example(e474,f27,negative).
example(e474,f28,negative).
example(e474,f29,negative).
example(e474,f30,negative).
example(e474,f31,positive).
example(e474,f32,negative).
example(e474,f33,positive).
example(e474,f34,negative).
example(e475,f1,negative).
example(e475,f2,negative).
example(e475,f3,negative).
example(e475,f4,positive).
example(e475,f5,negative).
example(e475,f6,positive).
example(e475,f7,positive).
example(e475,f8,negative).
example(e475,f9,negative).
example(e475,f10,negative).
example(e475,f11,negative).
example(e475,f12,negative).
example(e475,f13,positive).
example(e475,f14,negative).
example(e475,f15,negative).
example(e475,f16,negative).
example(e475,f17,negative).
example(e475,f18,negative).
example(e475,f19,negative).
example(e475,f20,negative).
example(e475,f21,negative).
example(e475,f22,negative).
example(e475,f23,negative).
example(e475,f24,negative).
example(e475,f25,positive).
example(e475,f26,negative).
example(e475,f27,negative).
example(e475,f28,negative).
example(e475,f29,negative).
example(e475,f30,negative).
example(e475,f31,negative).
example(e475,f32,negative).
example(e475,f33,positive).
example(e475,f34,negative).
example(e476,f1,negative).
example(e476,f2,negative).
example(e476,f3,negative).
example(e476,f4,negative).
example(e476,f5,negative).
example(e476,f6,negative).
example(e476,f7,positive).
example(e476,f8,negative).
example(e476,f9,negative).
example(e476,f10,negative).
example(e476,f11,negative).
example(e476,f12,negative).
example(e476,f13,negative).
example(e476,f14,negative).
example(e476,f15,negative).
example(e476,f16,negative).
example(e476,f17,negative).
example(e476,f18,negative).
example(e476,f19,negative).
example(e476,f20,negative).
example(e476,f21,negative).
example(e476,f22,positive).
example(e476,f23,negative).
example(e476,f24,negative).
example(e476,f25,positive).
example(e476,f26,negative).
example(e476,f27,negative).
example(e476,f28,negative).
example(e476,f29,negative).
example(e476,f30,positive).
example(e476,f31,positive).
example(e476,f32,positive).
example(e476,f33,positive).
example(e476,f34,negative).
example(e477,f1,negative).
example(e477,f2,negative).
example(e477,f3,negative).
example(e477,f4,positive).
example(e477,f5,negative).
example(e477,f6,positive).
example(e477,f7,positive).
example(e477,f8,negative).
example(e477,f9,negative).
example(e477,f10,negative).
example(e477,f11,negative).
example(e477,f12,negative).
example(e477,f13,negative).
example(e477,f14,negative).
example(e477,f15,negative).
example(e477,f16,negative).
example(e477,f17,positive).
example(e477,f18,negative).
example(e477,f19,negative).
example(e477,f20,negative).
example(e477,f21,negative).
example(e477,f22,negative).
example(e477,f23,negative).
example(e477,f24,negative).
example(e477,f25,positive).
example(e477,f26,negative).
example(e477,f27,negative).
example(e477,f28,negative).
example(e477,f29,negative).
example(e477,f30,negative).
example(e477,f31,negative).
example(e477,f32,negative).
example(e477,f33,negative).
example(e477,f34,negative).
example(e478,f1,negative).
example(e478,f2,negative).
example(e478,f3,negative).
example(e478,f4,positive).
example(e478,f5,positive).
example(e478,f6,negative).
example(e478,f7,negative).
example(e478,f8,positive).
example(e478,f9,negative).
example(e478,f10,negative).
example(e478,f11,negative).
example(e478,f12,negative).
example(e478,f13,negative).
example(e478,f14,negative).
example(e478,f15,negative).
example(e478,f16,negative).
example(e478,f17,negative).
example(e478,f18,negative).
example(e478,f19,negative).
example(e478,f20,negative).
example(e478,f21,positive).
example(e478,f22,negative).
example(e478,f23,negative).
example(e478,f24,negative).
example(e478,f25,positive).
example(e478,f26,negative).
example(e478,f27,negative).
example(e478,f28,negative).
example(e478,f29,negative).
example(e478,f30,negative).
example(e478,f31,negative).
example(e478,f32,negative).
example(e478,f33,positive).
example(e478,f34,negative).
example(e479,f1,negative).
example(e479,f2,negative).
example(e479,f3,negative).
example(e479,f4,positive).
example(e479,f5,negative).
example(e479,f6,negative).
example(e479,f7,negative).
example(e479,f8,positive).
example(e479,f9,negative).
example(e479,f10,negative).
example(e479,f11,positive).
example(e479,f12,negative).
example(e479,f13,negative).
example(e479,f14,negative).
example(e479,f15,negative).
example(e479,f16,negative).
example(e479,f17,negative).
example(e479,f18,negative).
example(e479,f19,negative).
example(e479,f20,negative).
example(e479,f21,negative).
example(e479,f22,negative).
example(e479,f23,negative).
example(e479,f24,negative).
example(e479,f25,positive).
example(e479,f26,negative).
example(e479,f27,negative).
example(e479,f28,negative).
example(e479,f29,negative).
example(e479,f30,positive).
example(e479,f31,negative).
example(e479,f32,positive).
example(e479,f33,positive).
example(e479,f34,negative).
example(e480,f1,negative).
example(e480,f2,negative).
example(e480,f3,negative).
example(e480,f4,positive).
example(e480,f5,positive).
example(e480,f6,positive).
example(e480,f7,positive).
example(e480,f8,negative).
example(e480,f9,negative).
example(e480,f10,negative).
example(e480,f11,negative).
example(e480,f12,negative).
example(e480,f13,negative).
example(e480,f14,negative).
example(e480,f15,negative).
example(e480,f16,negative).
example(e480,f17,negative).
example(e480,f18,negative).
example(e480,f19,positive).
example(e480,f20,negative).
example(e480,f21,negative).
example(e480,f22,negative).
example(e480,f23,negative).
example(e480,f24,negative).
example(e480,f25,positive).
example(e480,f26,negative).
example(e480,f27,negative).
example(e480,f28,negative).
example(e480,f29,negative).
example(e480,f30,positive).
example(e480,f31,negative).
example(e480,f32,negative).
example(e480,f33,positive).
example(e480,f34,negative).
example(e481,f1,negative).
example(e481,f2,negative).
example(e481,f3,negative).
example(e481,f4,negative).
example(e481,f5,negative).
example(e481,f6,negative).
example(e481,f7,negative).
example(e481,f8,positive).
example(e481,f9,negative).
example(e481,f10,negative).
example(e481,f11,negative).
example(e481,f12,negative).
example(e481,f13,positive).
example(e481,f14,negative).
example(e481,f15,negative).
example(e481,f16,negative).
example(e481,f17,negative).
example(e481,f18,negative).
example(e481,f19,negative).
example(e481,f20,negative).
example(e481,f21,negative).
example(e481,f22,negative).
example(e481,f23,negative).
example(e481,f24,negative).
example(e481,f25,negative).
example(e481,f26,negative).
example(e481,f27,negative).
example(e481,f28,positive).
example(e481,f29,negative).
example(e481,f30,positive).
example(e481,f31,positive).
example(e481,f32,negative).
example(e481,f33,positive).
example(e481,f34,negative).
example(e482,f1,negative).
example(e482,f2,negative).
example(e482,f3,negative).
example(e482,f4,positive).
example(e482,f5,negative).
example(e482,f6,positive).
example(e482,f7,positive).
example(e482,f8,positive).
example(e482,f9,negative).
example(e482,f10,negative).
example(e482,f11,negative).
example(e482,f12,negative).
example(e482,f13,negative).
example(e482,f14,negative).
example(e482,f15,negative).
example(e482,f16,negative).
example(e482,f17,negative).
example(e482,f18,negative).
example(e482,f19,negative).
example(e482,f20,negative).
example(e482,f21,positive).
example(e482,f22,negative).
example(e482,f23,negative).
example(e482,f24,negative).
example(e482,f25,positive).
example(e482,f26,negative).
example(e482,f27,negative).
example(e482,f28,negative).
example(e482,f29,negative).
example(e482,f30,positive).
example(e482,f31,negative).
example(e482,f32,negative).
example(e482,f33,positive).
example(e482,f34,negative).
example(e483,f1,negative).
example(e483,f2,positive).
example(e483,f3,positive).
example(e483,f4,positive).
example(e483,f5,negative).
example(e483,f6,positive).
example(e483,f7,positive).
example(e483,f8,positive).
example(e483,f9,negative).
example(e483,f10,negative).
example(e483,f11,negative).
example(e483,f12,negative).
example(e483,f13,negative).
example(e483,f14,negative).
example(e483,f15,negative).
example(e483,f16,negative).
example(e483,f17,negative).
example(e483,f18,negative).
example(e483,f19,negative).
example(e483,f20,negative).
example(e483,f21,positive).
example(e483,f22,negative).
example(e483,f23,negative).
example(e483,f24,negative).
example(e483,f25,positive).
example(e483,f26,negative).
example(e483,f27,negative).
example(e483,f28,negative).
example(e483,f29,negative).
example(e483,f30,negative).
example(e483,f31,negative).
example(e483,f32,negative).
example(e483,f33,negative).
example(e483,f34,positive).
example(e484,f1,negative).
example(e484,f2,negative).
example(e484,f3,negative).
example(e484,f4,negative).
example(e484,f5,negative).
example(e484,f6,negative).
example(e484,f7,negative).
example(e484,f8,negative).
example(e484,f9,negative).
example(e484,f10,negative).
example(e484,f11,negative).
example(e484,f12,negative).
example(e484,f13,negative).
example(e484,f14,negative).
example(e484,f15,negative).
example(e484,f16,negative).
example(e484,f17,negative).
example(e484,f18,negative).
example(e484,f19,negative).
example(e484,f20,negative).
example(e484,f21,negative).
example(e484,f22,negative).
example(e484,f23,negative).
example(e484,f24,negative).
example(e484,f25,negative).
example(e484,f26,negative).
example(e484,f27,negative).
example(e484,f28,negative).
example(e484,f29,negative).
example(e484,f30,negative).
example(e484,f31,positive).
example(e484,f32,positive).
example(e484,f33,positive).
example(e484,f34,negative).
example(e485,f1,negative).
example(e485,f2,negative).
example(e485,f3,negative).
example(e485,f4,positive).
example(e485,f5,positive).
example(e485,f6,positive).
example(e485,f7,positive).
example(e485,f8,positive).
example(e485,f9,negative).
example(e485,f10,negative).
example(e485,f11,positive).
example(e485,f12,negative).
example(e485,f13,negative).
example(e485,f14,negative).
example(e485,f15,negative).
example(e485,f16,negative).
example(e485,f17,negative).
example(e485,f18,negative).
example(e485,f19,negative).
example(e485,f20,negative).
example(e485,f21,negative).
example(e485,f22,negative).
example(e485,f23,negative).
example(e485,f24,negative).
example(e485,f25,positive).
example(e485,f26,negative).
example(e485,f27,negative).
example(e485,f28,negative).
example(e485,f29,negative).
example(e485,f30,positive).
example(e485,f31,negative).
example(e485,f32,negative).
example(e485,f33,negative).
example(e485,f34,negative).
example(e486,f1,negative).
example(e486,f2,negative).
example(e486,f3,negative).
example(e486,f4,negative).
example(e486,f5,negative).
example(e486,f6,negative).
example(e486,f7,positive).
example(e486,f8,negative).
example(e486,f9,negative).
example(e486,f10,negative).
example(e486,f11,negative).
example(e486,f12,negative).
example(e486,f13,negative).
example(e486,f14,negative).
example(e486,f15,negative).
example(e486,f16,negative).
example(e486,f17,negative).
example(e486,f18,negative).
example(e486,f19,negative).
example(e486,f20,negative).
example(e486,f21,positive).
example(e486,f22,negative).
example(e486,f23,negative).
example(e486,f24,negative).
example(e486,f25,positive).
example(e486,f26,negative).
example(e486,f27,negative).
example(e486,f28,negative).
example(e486,f29,negative).
example(e486,f30,positive).
example(e486,f31,positive).
example(e486,f32,positive).
example(e486,f33,positive).
example(e486,f34,negative).
example(e487,f1,negative).
example(e487,f2,negative).
example(e487,f3,negative).
example(e487,f4,negative).
example(e487,f5,negative).
example(e487,f6,negative).
example(e487,f7,positive).
example(e487,f8,positive).
example(e487,f9,negative).
example(e487,f10,negative).
example(e487,f11,negative).
example(e487,f12,negative).
example(e487,f13,negative).
example(e487,f14,negative).
example(e487,f15,negative).
example(e487,f16,negative).
example(e487,f17,negative).
example(e487,f18,negative).
example(e487,f19,negative).
example(e487,f20,positive).
example(e487,f21,negative).
example(e487,f22,negative).
example(e487,f23,negative).
example(e487,f24,negative).
example(e487,f25,positive).
example(e487,f26,negative).
example(e487,f27,negative).
example(e487,f28,negative).
example(e487,f29,negative).
example(e487,f30,positive).
example(e487,f31,positive).
example(e487,f32,positive).
example(e487,f33,positive).
example(e487,f34,negative).
example(e488,f1,negative).
example(e488,f2,negative).
example(e488,f3,negative).
example(e488,f4,negative).
example(e488,f5,positive).
example(e488,f6,negative).
example(e488,f7,positive).
example(e488,f8,positive).
example(e488,f9,negative).
example(e488,f10,negative).
example(e488,f11,negative).
example(e488,f12,negative).
example(e488,f13,negative).
example(e488,f14,negative).
example(e488,f15,negative).
example(e488,f16,negative).
example(e488,f17,negative).
example(e488,f18,negative).
example(e488,f19,negative).
example(e488,f20,negative).
example(e488,f21,negative).
example(e488,f22,negative).
example(e488,f23,negative).
example(e488,f24,negative).
example(e488,f25,negative).
example(e488,f26,negative).
example(e488,f27,negative).
example(e488,f28,negative).
example(e488,f29,negative).
example(e488,f30,positive).
example(e488,f31,positive).
example(e488,f32,negative).
example(e488,f33,positive).
example(e488,f34,negative).
example(e489,f1,negative).
example(e489,f2,negative).
example(e489,f3,positive).
example(e489,f4,negative).
example(e489,f5,positive).
example(e489,f6,negative).
example(e489,f7,positive).
example(e489,f8,positive).
example(e489,f9,negative).
example(e489,f10,negative).
example(e489,f11,negative).
example(e489,f12,negative).
example(e489,f13,negative).
example(e489,f14,negative).
example(e489,f15,negative).
example(e489,f16,positive).
example(e489,f17,negative).
example(e489,f18,negative).
example(e489,f19,negative).
example(e489,f20,negative).
example(e489,f21,negative).
example(e489,f22,negative).
example(e489,f23,negative).
example(e489,f24,negative).
example(e489,f25,negative).
example(e489,f26,positive).
example(e489,f27,negative).
example(e489,f28,negative).
example(e489,f29,negative).
example(e489,f30,positive).
example(e489,f31,positive).
example(e489,f32,negative).
example(e489,f33,positive).
example(e489,f34,negative).
example(e490,f1,negative).
example(e490,f2,negative).
example(e490,f3,negative).
example(e490,f4,positive).
example(e490,f5,negative).
example(e490,f6,positive).
example(e490,f7,positive).
example(e490,f8,positive).
example(e490,f9,negative).
example(e490,f10,negative).
example(e490,f11,negative).
example(e490,f12,negative).
example(e490,f13,negative).
example(e490,f14,negative).
example(e490,f15,negative).
example(e490,f16,negative).
example(e490,f17,negative).
example(e490,f18,negative).
example(e490,f19,negative).
example(e490,f20,positive).
example(e490,f21,negative).
example(e490,f22,negative).
example(e490,f23,negative).
example(e490,f24,negative).
example(e490,f25,positive).
example(e490,f26,negative).
example(e490,f27,negative).
example(e490,f28,negative).
example(e490,f29,negative).
example(e490,f30,positive).
example(e490,f31,negative).
example(e490,f32,negative).
example(e490,f33,negative).
example(e490,f34,negative).
example(e491,f1,negative).
example(e491,f2,negative).
example(e491,f3,negative).
example(e491,f4,negative).
example(e491,f5,negative).
example(e491,f6,negative).
example(e491,f7,positive).
example(e491,f8,negative).
example(e491,f9,negative).
example(e491,f10,negative).
example(e491,f11,negative).
example(e491,f12,negative).
example(e491,f13,negative).
example(e491,f14,negative).
example(e491,f15,negative).
example(e491,f16,negative).
example(e491,f17,negative).
example(e491,f18,negative).
example(e491,f19,positive).
example(e491,f20,negative).
example(e491,f21,negative).
example(e491,f22,negative).
example(e491,f23,negative).
example(e491,f24,negative).
example(e491,f25,positive).
example(e491,f26,negative).
example(e491,f27,negative).
example(e491,f28,negative).
example(e491,f29,negative).
example(e491,f30,positive).
example(e491,f31,positive).
example(e491,f32,positive).
example(e491,f33,positive).
example(e491,f34,negative).
example(e492,f1,negative).
example(e492,f2,negative).
example(e492,f3,negative).
example(e492,f4,negative).
example(e492,f5,negative).
example(e492,f6,negative).
example(e492,f7,positive).
example(e492,f8,positive).
example(e492,f9,negative).
example(e492,f10,negative).
example(e492,f11,negative).
example(e492,f12,negative).
example(e492,f13,positive).
example(e492,f14,negative).
example(e492,f15,negative).
example(e492,f16,negative).
example(e492,f17,negative).
example(e492,f18,negative).
example(e492,f19,negative).
example(e492,f20,negative).
example(e492,f21,negative).
example(e492,f22,negative).
example(e492,f23,negative).
example(e492,f24,negative).
example(e492,f25,positive).
example(e492,f26,negative).
example(e492,f27,negative).
example(e492,f28,negative).
example(e492,f29,negative).
example(e492,f30,positive).
example(e492,f31,positive).
example(e492,f32,negative).
example(e492,f33,positive).
example(e492,f34,negative).
example(e493,f1,negative).
example(e493,f2,negative).
example(e493,f3,negative).
example(e493,f4,positive).
example(e493,f5,negative).
example(e493,f6,negative).
example(e493,f7,positive).
example(e493,f8,negative).
example(e493,f9,negative).
example(e493,f10,negative).
example(e493,f11,negative).
example(e493,f12,negative).
example(e493,f13,negative).
example(e493,f14,negative).
example(e493,f15,negative).
example(e493,f16,negative).
example(e493,f17,negative).
example(e493,f18,negative).
example(e493,f19,negative).
example(e493,f20,negative).
example(e493,f21,negative).
example(e493,f22,negative).
example(e493,f23,negative).
example(e493,f24,negative).
example(e493,f25,negative).
example(e493,f26,negative).
example(e493,f27,negative).
example(e493,f28,negative).
example(e493,f29,negative).
example(e493,f30,negative).
example(e493,f31,negative).
example(e493,f32,negative).
example(e493,f33,positive).
example(e493,f34,negative).
example(e494,f1,negative).
example(e494,f2,negative).
example(e494,f3,negative).
example(e494,f4,positive).
example(e494,f5,negative).
example(e494,f6,positive).
example(e494,f7,negative).
example(e494,f8,negative).
example(e494,f9,negative).
example(e494,f10,negative).
example(e494,f11,negative).
example(e494,f12,negative).
example(e494,f13,negative).
example(e494,f14,negative).
example(e494,f15,negative).
example(e494,f16,negative).
example(e494,f17,negative).
example(e494,f18,negative).
example(e494,f19,positive).
example(e494,f20,negative).
example(e494,f21,negative).
example(e494,f22,negative).
example(e494,f23,negative).
example(e494,f24,negative).
example(e494,f25,positive).
example(e494,f26,negative).
example(e494,f27,negative).
example(e494,f28,negative).
example(e494,f29,negative).
example(e494,f30,positive).
example(e494,f31,negative).
example(e494,f32,negative).
example(e494,f33,positive).
example(e494,f34,negative).
example(e495,f1,negative).
example(e495,f2,negative).
example(e495,f3,negative).
example(e495,f4,positive).
example(e495,f5,negative).
example(e495,f6,positive).
example(e495,f7,positive).
example(e495,f8,negative).
example(e495,f9,negative).
example(e495,f10,negative).
example(e495,f11,negative).
example(e495,f12,negative).
example(e495,f13,negative).
example(e495,f14,negative).
example(e495,f15,negative).
example(e495,f16,negative).
example(e495,f17,negative).
example(e495,f18,negative).
example(e495,f19,negative).
example(e495,f20,negative).
example(e495,f21,positive).
example(e495,f22,negative).
example(e495,f23,negative).
example(e495,f24,negative).
example(e495,f25,positive).
example(e495,f26,negative).
example(e495,f27,negative).
example(e495,f28,negative).
example(e495,f29,negative).
example(e495,f30,negative).
example(e495,f31,negative).
example(e495,f32,negative).
example(e495,f33,positive).
example(e495,f34,negative).
example(e496,f1,negative).
example(e496,f2,negative).
example(e496,f3,negative).
example(e496,f4,positive).
example(e496,f5,negative).
example(e496,f6,negative).
example(e496,f7,negative).
example(e496,f8,positive).
example(e496,f9,negative).
example(e496,f10,negative).
example(e496,f11,negative).
example(e496,f12,negative).
example(e496,f13,positive).
example(e496,f14,negative).
example(e496,f15,negative).
example(e496,f16,negative).
example(e496,f17,negative).
example(e496,f18,negative).
example(e496,f19,negative).
example(e496,f20,negative).
example(e496,f21,negative).
example(e496,f22,negative).
example(e496,f23,negative).
example(e496,f24,negative).
example(e496,f25,positive).
example(e496,f26,negative).
example(e496,f27,negative).
example(e496,f28,negative).
example(e496,f29,negative).
example(e496,f30,negative).
example(e496,f31,negative).
example(e496,f32,negative).
example(e496,f33,positive).
example(e496,f34,negative).
example(e497,f1,negative).
example(e497,f2,negative).
example(e497,f3,negative).
example(e497,f4,positive).
example(e497,f5,negative).
example(e497,f6,negative).
example(e497,f7,positive).
example(e497,f8,positive).
example(e497,f9,negative).
example(e497,f10,negative).
example(e497,f11,negative).
example(e497,f12,negative).
example(e497,f13,negative).
example(e497,f14,negative).
example(e497,f15,negative).
example(e497,f16,negative).
example(e497,f17,negative).
example(e497,f18,negative).
example(e497,f19,negative).
example(e497,f20,negative).
example(e497,f21,positive).
example(e497,f22,negative).
example(e497,f23,negative).
example(e497,f24,negative).
example(e497,f25,negative).
example(e497,f26,positive).
example(e497,f27,negative).
example(e497,f28,negative).
example(e497,f29,negative).
example(e497,f30,positive).
example(e497,f31,negative).
example(e497,f32,negative).
example(e497,f33,positive).
example(e497,f34,negative).
example(e498,f1,negative).
example(e498,f2,negative).
example(e498,f3,negative).
example(e498,f4,negative).
example(e498,f5,negative).
example(e498,f6,negative).
example(e498,f7,negative).
example(e498,f8,positive).
example(e498,f9,negative).
example(e498,f10,negative).
example(e498,f11,negative).
example(e498,f12,negative).
example(e498,f13,negative).
example(e498,f14,negative).
example(e498,f15,negative).
example(e498,f16,negative).
example(e498,f17,negative).
example(e498,f18,negative).
example(e498,f19,negative).
example(e498,f20,negative).
example(e498,f21,positive).
example(e498,f22,negative).
example(e498,f23,negative).
example(e498,f24,negative).
example(e498,f25,positive).
example(e498,f26,negative).
example(e498,f27,negative).
example(e498,f28,negative).
example(e498,f29,negative).
example(e498,f30,positive).
example(e498,f31,positive).
example(e498,f32,positive).
example(e498,f33,positive).
example(e498,f34,negative).
example(e499,f1,negative).
example(e499,f2,negative).
example(e499,f3,negative).
example(e499,f4,positive).
example(e499,f5,negative).
example(e499,f6,positive).
example(e499,f7,negative).
example(e499,f8,negative).
example(e499,f9,positive).
example(e499,f10,negative).
example(e499,f11,negative).
example(e499,f12,negative).
example(e499,f13,positive).
example(e499,f14,negative).
example(e499,f15,negative).
example(e499,f16,negative).
example(e499,f17,negative).
example(e499,f18,negative).
example(e499,f19,negative).
example(e499,f20,negative).
example(e499,f21,negative).
example(e499,f22,negative).
example(e499,f23,negative).
example(e499,f24,negative).
example(e499,f25,negative).
example(e499,f26,negative).
example(e499,f27,negative).
example(e499,f28,negative).
example(e499,f29,negative).
example(e499,f30,negative).
example(e499,f31,negative).
example(e499,f32,positive).
example(e499,f33,negative).
example(e499,f34,negative).
example(e500,f1,negative).
example(e500,f2,negative).
example(e500,f3,negative).
example(e500,f4,negative).
example(e500,f5,negative).
example(e500,f6,negative).
example(e500,f7,positive).
example(e500,f8,positive).
example(e500,f9,negative).
example(e500,f10,negative).
example(e500,f11,negative).
example(e500,f12,negative).
example(e500,f13,negative).
example(e500,f14,negative).
example(e500,f15,negative).
example(e500,f16,negative).
example(e500,f17,negative).
example(e500,f18,negative).
example(e500,f19,negative).
example(e500,f20,negative).
example(e500,f21,positive).
example(e500,f22,negative).
example(e500,f23,negative).
example(e500,f24,negative).
example(e500,f25,positive).
example(e500,f26,negative).
example(e500,f27,negative).
example(e500,f28,negative).
example(e500,f29,negative).
example(e500,f30,positive).
example(e500,f31,positive).
example(e500,f32,negative).
example(e500,f33,positive).
example(e500,f34,negative).
example(e501,f1,negative).
example(e501,f2,negative).
example(e501,f3,positive).
example(e501,f4,positive).
example(e501,f5,negative).
example(e501,f6,negative).
example(e501,f7,positive).
example(e501,f8,negative).
example(e501,f9,positive).
example(e501,f10,negative).
example(e501,f11,negative).
example(e501,f12,negative).
example(e501,f13,negative).
example(e501,f14,negative).
example(e501,f15,negative).
example(e501,f16,negative).
example(e501,f17,negative).
example(e501,f18,negative).
example(e501,f19,negative).
example(e501,f20,negative).
example(e501,f21,negative).
example(e501,f22,negative).
example(e501,f23,negative).
example(e501,f24,negative).
example(e501,f25,negative).
example(e501,f26,negative).
example(e501,f27,positive).
example(e501,f28,negative).
example(e501,f29,negative).
example(e501,f30,negative).
example(e501,f31,negative).
example(e501,f32,positive).
example(e501,f33,negative).
example(e501,f34,positive).
example(e502,f1,negative).
example(e502,f2,negative).
example(e502,f3,negative).
example(e502,f4,positive).
example(e502,f5,negative).
example(e502,f6,positive).
example(e502,f7,positive).
example(e502,f8,negative).
example(e502,f9,negative).
example(e502,f10,negative).
example(e502,f11,negative).
example(e502,f12,negative).
example(e502,f13,negative).
example(e502,f14,negative).
example(e502,f15,negative).
example(e502,f16,negative).
example(e502,f17,negative).
example(e502,f18,negative).
example(e502,f19,negative).
example(e502,f20,positive).
example(e502,f21,negative).
example(e502,f22,negative).
example(e502,f23,negative).
example(e502,f24,negative).
example(e502,f25,positive).
example(e502,f26,negative).
example(e502,f27,negative).
example(e502,f28,negative).
example(e502,f29,negative).
example(e502,f30,negative).
example(e502,f31,negative).
example(e502,f32,negative).
example(e502,f33,positive).
example(e502,f34,negative).
example(e503,f1,negative).
example(e503,f2,negative).
example(e503,f3,negative).
example(e503,f4,negative).
example(e503,f5,negative).
example(e503,f6,negative).
example(e503,f7,positive).
example(e503,f8,positive).
example(e503,f9,negative).
example(e503,f10,negative).
example(e503,f11,negative).
example(e503,f12,negative).
example(e503,f13,negative).
example(e503,f14,negative).
example(e503,f15,negative).
example(e503,f16,negative).
example(e503,f17,negative).
example(e503,f18,negative).
example(e503,f19,negative).
example(e503,f20,positive).
example(e503,f21,negative).
example(e503,f22,negative).
example(e503,f23,negative).
example(e503,f24,negative).
example(e503,f25,negative).
example(e503,f26,positive).
example(e503,f27,negative).
example(e503,f28,negative).
example(e503,f29,negative).
example(e503,f30,positive).
example(e503,f31,positive).
example(e503,f32,positive).
example(e503,f33,positive).
example(e503,f34,negative).
example(e504,f1,negative).
example(e504,f2,negative).
example(e504,f3,negative).
example(e504,f4,negative).
example(e504,f5,positive).
example(e504,f6,positive).
example(e504,f7,positive).
example(e504,f8,positive).
example(e504,f9,negative).
example(e504,f10,positive).
example(e504,f11,negative).
example(e504,f12,negative).
example(e504,f13,negative).
example(e504,f14,negative).
example(e504,f15,negative).
example(e504,f16,negative).
example(e504,f17,negative).
example(e504,f18,negative).
example(e504,f19,negative).
example(e504,f20,negative).
example(e504,f21,negative).
example(e504,f22,negative).
example(e504,f23,negative).
example(e504,f24,negative).
example(e504,f25,negative).
example(e504,f26,negative).
example(e504,f27,negative).
example(e504,f28,positive).
example(e504,f29,negative).
example(e504,f30,positive).
example(e504,f31,positive).
example(e504,f32,negative).
example(e504,f33,positive).
example(e504,f34,negative).
example(e505,f1,positive).
example(e505,f2,negative).
example(e505,f3,negative).
example(e505,f4,negative).
example(e505,f5,negative).
example(e505,f6,negative).
example(e505,f7,positive).
example(e505,f8,negative).
example(e505,f9,negative).
example(e505,f10,negative).
example(e505,f11,negative).
example(e505,f12,negative).
example(e505,f13,negative).
example(e505,f14,negative).
example(e505,f15,negative).
example(e505,f16,negative).
example(e505,f17,negative).
example(e505,f18,negative).
example(e505,f19,negative).
example(e505,f20,negative).
example(e505,f21,negative).
example(e505,f22,positive).
example(e505,f23,negative).
example(e505,f24,negative).
example(e505,f25,positive).
example(e505,f26,negative).
example(e505,f27,negative).
example(e505,f28,negative).
example(e505,f29,negative).
example(e505,f30,positive).
example(e505,f31,positive).
example(e505,f32,positive).
example(e505,f33,positive).
example(e505,f34,negative).
example(e506,f1,negative).
example(e506,f2,negative).
example(e506,f3,negative).
example(e506,f4,positive).
example(e506,f5,negative).
example(e506,f6,negative).
example(e506,f7,positive).
example(e506,f8,positive).
example(e506,f9,negative).
example(e506,f10,negative).
example(e506,f11,positive).
example(e506,f12,negative).
example(e506,f13,negative).
example(e506,f14,negative).
example(e506,f15,negative).
example(e506,f16,negative).
example(e506,f17,negative).
example(e506,f18,negative).
example(e506,f19,negative).
example(e506,f20,negative).
example(e506,f21,negative).
example(e506,f22,negative).
example(e506,f23,negative).
example(e506,f24,negative).
example(e506,f25,positive).
example(e506,f26,negative).
example(e506,f27,negative).
example(e506,f28,negative).
example(e506,f29,negative).
example(e506,f30,positive).
example(e506,f31,negative).
example(e506,f32,positive).
example(e506,f33,positive).
example(e506,f34,negative).
example(e507,f1,negative).
example(e507,f2,negative).
example(e507,f3,negative).
example(e507,f4,positive).
example(e507,f5,negative).
example(e507,f6,negative).
example(e507,f7,negative).
example(e507,f8,positive).
example(e507,f9,negative).
example(e507,f10,negative).
example(e507,f11,negative).
example(e507,f12,negative).
example(e507,f13,negative).
example(e507,f14,negative).
example(e507,f15,negative).
example(e507,f16,negative).
example(e507,f17,positive).
example(e507,f18,negative).
example(e507,f19,negative).
example(e507,f20,negative).
example(e507,f21,negative).
example(e507,f22,negative).
example(e507,f23,negative).
example(e507,f24,negative).
example(e507,f25,negative).
example(e507,f26,negative).
example(e507,f27,negative).
example(e507,f28,positive).
example(e507,f29,negative).
example(e507,f30,negative).
example(e507,f31,negative).
example(e507,f32,negative).
example(e507,f33,positive).
example(e507,f34,negative).
example(e508,f1,negative).
example(e508,f2,negative).
example(e508,f3,negative).
example(e508,f4,negative).
example(e508,f5,negative).
example(e508,f6,negative).
example(e508,f7,positive).
example(e508,f8,positive).
example(e508,f9,negative).
example(e508,f10,negative).
example(e508,f11,negative).
example(e508,f12,negative).
example(e508,f13,negative).
example(e508,f14,negative).
example(e508,f15,negative).
example(e508,f16,negative).
example(e508,f17,negative).
example(e508,f18,negative).
example(e508,f19,negative).
example(e508,f20,negative).
example(e508,f21,negative).
example(e508,f22,positive).
example(e508,f23,negative).
example(e508,f24,negative).
example(e508,f25,negative).
example(e508,f26,negative).
example(e508,f27,negative).
example(e508,f28,positive).
example(e508,f29,negative).
example(e508,f30,negative).
example(e508,f31,positive).
example(e508,f32,negative).
example(e508,f33,positive).
example(e508,f34,negative).
example(e509,f1,negative).
example(e509,f2,negative).
example(e509,f3,negative).
example(e509,f4,positive).
example(e509,f5,negative).
example(e509,f6,positive).
example(e509,f7,positive).
example(e509,f8,negative).
example(e509,f9,negative).
example(e509,f10,negative).
example(e509,f11,negative).
example(e509,f12,negative).
example(e509,f13,negative).
example(e509,f14,negative).
example(e509,f15,negative).
example(e509,f16,negative).
example(e509,f17,negative).
example(e509,f18,negative).
example(e509,f19,negative).
example(e509,f20,negative).
example(e509,f21,negative).
example(e509,f22,positive).
example(e509,f23,negative).
example(e509,f24,negative).
example(e509,f25,positive).
example(e509,f26,negative).
example(e509,f27,negative).
example(e509,f28,negative).
example(e509,f29,negative).
example(e509,f30,negative).
example(e509,f31,negative).
example(e509,f32,negative).
example(e509,f33,negative).
example(e509,f34,negative).
example(e510,f1,negative).
example(e510,f2,negative).
example(e510,f3,negative).
example(e510,f4,negative).
example(e510,f5,negative).
example(e510,f6,positive).
example(e510,f7,positive).
example(e510,f8,positive).
example(e510,f9,negative).
example(e510,f10,negative).
example(e510,f11,negative).
example(e510,f12,negative).
example(e510,f13,negative).
example(e510,f14,negative).
example(e510,f15,negative).
example(e510,f16,negative).
example(e510,f17,negative).
example(e510,f18,negative).
example(e510,f19,negative).
example(e510,f20,negative).
example(e510,f21,negative).
example(e510,f22,positive).
example(e510,f23,negative).
example(e510,f24,negative).
example(e510,f25,positive).
example(e510,f26,negative).
example(e510,f27,negative).
example(e510,f28,negative).
example(e510,f29,negative).
example(e510,f30,positive).
example(e510,f31,positive).
example(e510,f32,positive).
example(e510,f33,positive).
example(e510,f34,negative).
example(e511,f1,negative).
example(e511,f2,negative).
example(e511,f3,negative).
example(e511,f4,positive).
example(e511,f5,negative).
example(e511,f6,negative).
example(e511,f7,positive).
example(e511,f8,negative).
example(e511,f9,negative).
example(e511,f10,negative).
example(e511,f11,negative).
example(e511,f12,positive).
example(e511,f13,negative).
example(e511,f14,negative).
example(e511,f15,negative).
example(e511,f16,negative).
example(e511,f17,negative).
example(e511,f18,negative).
example(e511,f19,negative).
example(e511,f20,negative).
example(e511,f21,negative).
example(e511,f22,negative).
example(e511,f23,negative).
example(e511,f24,negative).
example(e511,f25,negative).
example(e511,f26,negative).
example(e511,f27,positive).
example(e511,f28,negative).
example(e511,f29,negative).
example(e511,f30,negative).
example(e511,f31,negative).
example(e511,f32,positive).
example(e511,f33,positive).
example(e511,f34,negative).
example(e512,f1,negative).
example(e512,f2,negative).
example(e512,f3,negative).
example(e512,f4,positive).
example(e512,f5,negative).
example(e512,f6,negative).
example(e512,f7,positive).
example(e512,f8,positive).
example(e512,f9,negative).
example(e512,f10,negative).
example(e512,f11,negative).
example(e512,f12,negative).
example(e512,f13,negative).
example(e512,f14,negative).
example(e512,f15,negative).
example(e512,f16,negative).
example(e512,f17,negative).
example(e512,f18,negative).
example(e512,f19,negative).
example(e512,f20,negative).
example(e512,f21,positive).
example(e512,f22,negative).
example(e512,f23,negative).
example(e512,f24,negative).
example(e512,f25,negative).
example(e512,f26,negative).
example(e512,f27,negative).
example(e512,f28,positive).
example(e512,f29,negative).
example(e512,f30,negative).
example(e512,f31,negative).
example(e512,f32,negative).
example(e512,f33,positive).
example(e512,f34,negative).
example(e513,f1,negative).
example(e513,f2,negative).
example(e513,f3,negative).
example(e513,f4,positive).
example(e513,f5,negative).
example(e513,f6,negative).
example(e513,f7,positive).
example(e513,f8,positive).
example(e513,f9,negative).
example(e513,f10,negative).
example(e513,f11,negative).
example(e513,f12,negative).
example(e513,f13,negative).
example(e513,f14,negative).
example(e513,f15,negative).
example(e513,f16,negative).
example(e513,f17,negative).
example(e513,f18,negative).
example(e513,f19,negative).
example(e513,f20,negative).
example(e513,f21,negative).
example(e513,f22,positive).
example(e513,f23,negative).
example(e513,f24,negative).
example(e513,f25,positive).
example(e513,f26,negative).
example(e513,f27,negative).
example(e513,f28,negative).
example(e513,f29,negative).
example(e513,f30,negative).
example(e513,f31,negative).
example(e513,f32,positive).
example(e513,f33,positive).
example(e513,f34,negative).
example(e514,f1,negative).
example(e514,f2,negative).
example(e514,f3,negative).
example(e514,f4,negative).
example(e514,f5,positive).
example(e514,f6,positive).
example(e514,f7,negative).
example(e514,f8,positive).
example(e514,f9,negative).
example(e514,f10,negative).
example(e514,f11,positive).
example(e514,f12,negative).
example(e514,f13,negative).
example(e514,f14,negative).
example(e514,f15,negative).
example(e514,f16,negative).
example(e514,f17,negative).
example(e514,f18,negative).
example(e514,f19,negative).
example(e514,f20,negative).
example(e514,f21,negative).
example(e514,f22,negative).
example(e514,f23,negative).
example(e514,f24,negative).
example(e514,f25,positive).
example(e514,f26,negative).
example(e514,f27,negative).
example(e514,f28,negative).
example(e514,f29,negative).
example(e514,f30,positive).
example(e514,f31,positive).
example(e514,f32,positive).
example(e514,f33,positive).
example(e514,f34,negative).
example(e515,f1,negative).
example(e515,f2,negative).
example(e515,f3,negative).
example(e515,f4,positive).
example(e515,f5,positive).
example(e515,f6,positive).
example(e515,f7,positive).
example(e515,f8,positive).
example(e515,f9,negative).
example(e515,f10,negative).
example(e515,f11,negative).
example(e515,f12,negative).
example(e515,f13,negative).
example(e515,f14,negative).
example(e515,f15,negative).
example(e515,f16,positive).
example(e515,f17,negative).
example(e515,f18,negative).
example(e515,f19,negative).
example(e515,f20,negative).
example(e515,f21,negative).
example(e515,f22,negative).
example(e515,f23,negative).
example(e515,f24,negative).
example(e515,f25,positive).
example(e515,f26,negative).
example(e515,f27,negative).
example(e515,f28,negative).
example(e515,f29,negative).
example(e515,f30,negative).
example(e515,f31,negative).
example(e515,f32,negative).
example(e515,f33,positive).
example(e515,f34,negative).
example(e516,f1,negative).
example(e516,f2,negative).
example(e516,f3,negative).
example(e516,f4,positive).
example(e516,f5,negative).
example(e516,f6,positive).
example(e516,f7,negative).
example(e516,f8,positive).
example(e516,f9,negative).
example(e516,f10,negative).
example(e516,f11,negative).
example(e516,f12,negative).
example(e516,f13,negative).
example(e516,f14,negative).
example(e516,f15,positive).
example(e516,f16,negative).
example(e516,f17,negative).
example(e516,f18,negative).
example(e516,f19,negative).
example(e516,f20,negative).
example(e516,f21,negative).
example(e516,f22,negative).
example(e516,f23,negative).
example(e516,f24,negative).
example(e516,f25,positive).
example(e516,f26,negative).
example(e516,f27,negative).
example(e516,f28,negative).
example(e516,f29,negative).
example(e516,f30,positive).
example(e516,f31,negative).
example(e516,f32,positive).
example(e516,f33,positive).
example(e516,f34,negative).
example(e517,f1,negative).
example(e517,f2,negative).
example(e517,f3,negative).
example(e517,f4,negative).
example(e517,f5,negative).
example(e517,f6,negative).
example(e517,f7,negative).
example(e517,f8,positive).
example(e517,f9,negative).
example(e517,f10,negative).
example(e517,f11,negative).
example(e517,f12,negative).
example(e517,f13,negative).
example(e517,f14,negative).
example(e517,f15,negative).
example(e517,f16,negative).
example(e517,f17,positive).
example(e517,f18,negative).
example(e517,f19,negative).
example(e517,f20,negative).
example(e517,f21,negative).
example(e517,f22,negative).
example(e517,f23,negative).
example(e517,f24,negative).
example(e517,f25,positive).
example(e517,f26,negative).
example(e517,f27,negative).
example(e517,f28,negative).
example(e517,f29,negative).
example(e517,f30,positive).
example(e517,f31,positive).
example(e517,f32,negative).
example(e517,f33,positive).
example(e517,f34,negative).
example(e518,f1,negative).
example(e518,f2,negative).
example(e518,f3,negative).
example(e518,f4,negative).
example(e518,f5,negative).
example(e518,f6,positive).
example(e518,f7,negative).
example(e518,f8,positive).
example(e518,f9,negative).
example(e518,f10,negative).
example(e518,f11,negative).
example(e518,f12,negative).
example(e518,f13,negative).
example(e518,f14,negative).
example(e518,f15,negative).
example(e518,f16,positive).
example(e518,f17,negative).
example(e518,f18,negative).
example(e518,f19,negative).
example(e518,f20,negative).
example(e518,f21,negative).
example(e518,f22,negative).
example(e518,f23,negative).
example(e518,f24,negative).
example(e518,f25,negative).
example(e518,f26,positive).
example(e518,f27,negative).
example(e518,f28,negative).
example(e518,f29,negative).
example(e518,f30,positive).
example(e518,f31,positive).
example(e518,f32,negative).
example(e518,f33,negative).
example(e518,f34,negative).
example(e519,f1,negative).
example(e519,f2,negative).
example(e519,f3,negative).
example(e519,f4,negative).
example(e519,f5,negative).
example(e519,f6,positive).
example(e519,f7,positive).
example(e519,f8,positive).
example(e519,f9,negative).
example(e519,f10,negative).
example(e519,f11,negative).
example(e519,f12,negative).
example(e519,f13,positive).
example(e519,f14,negative).
example(e519,f15,negative).
example(e519,f16,negative).
example(e519,f17,negative).
example(e519,f18,negative).
example(e519,f19,negative).
example(e519,f20,negative).
example(e519,f21,negative).
example(e519,f22,negative).
example(e519,f23,negative).
example(e519,f24,negative).
example(e519,f25,positive).
example(e519,f26,negative).
example(e519,f27,negative).
example(e519,f28,negative).
example(e519,f29,negative).
example(e519,f30,positive).
example(e519,f31,positive).
example(e519,f32,positive).
example(e519,f33,positive).
example(e519,f34,negative).
example(e520,f1,negative).
example(e520,f2,negative).
example(e520,f3,positive).
example(e520,f4,positive).
example(e520,f5,negative).
example(e520,f6,negative).
example(e520,f7,negative).
example(e520,f8,positive).
example(e520,f9,negative).
example(e520,f10,negative).
example(e520,f11,negative).
example(e520,f12,negative).
example(e520,f13,negative).
example(e520,f14,negative).
example(e520,f15,negative).
example(e520,f16,negative).
example(e520,f17,negative).
example(e520,f18,negative).
example(e520,f19,negative).
example(e520,f20,negative).
example(e520,f21,negative).
example(e520,f22,negative).
example(e520,f23,negative).
example(e520,f24,negative).
example(e520,f25,negative).
example(e520,f26,negative).
example(e520,f27,negative).
example(e520,f28,negative).
example(e520,f29,negative).
example(e520,f30,negative).
example(e520,f31,negative).
example(e520,f32,negative).
example(e520,f33,positive).
example(e520,f34,negative).
example(e521,f1,negative).
example(e521,f2,negative).
example(e521,f3,negative).
example(e521,f4,negative).
example(e521,f5,negative).
example(e521,f6,negative).
example(e521,f7,positive).
example(e521,f8,positive).
example(e521,f9,negative).
example(e521,f10,negative).
example(e521,f11,negative).
example(e521,f12,negative).
example(e521,f13,negative).
example(e521,f14,negative).
example(e521,f15,negative).
example(e521,f16,negative).
example(e521,f17,negative).
example(e521,f18,negative).
example(e521,f19,negative).
example(e521,f20,negative).
example(e521,f21,negative).
example(e521,f22,positive).
example(e521,f23,negative).
example(e521,f24,negative).
example(e521,f25,positive).
example(e521,f26,negative).
example(e521,f27,negative).
example(e521,f28,negative).
example(e521,f29,negative).
example(e521,f30,positive).
example(e521,f31,positive).
example(e521,f32,positive).
example(e521,f33,positive).
example(e521,f34,negative).
example(e522,f1,negative).
example(e522,f2,negative).
example(e522,f3,negative).
example(e522,f4,negative).
example(e522,f5,negative).
example(e522,f6,negative).
example(e522,f7,negative).
example(e522,f8,positive).
example(e522,f9,negative).
example(e522,f10,negative).
example(e522,f11,negative).
example(e522,f12,negative).
example(e522,f13,negative).
example(e522,f14,negative).
example(e522,f15,negative).
example(e522,f16,negative).
example(e522,f17,negative).
example(e522,f18,negative).
example(e522,f19,negative).
example(e522,f20,negative).
example(e522,f21,negative).
example(e522,f22,positive).
example(e522,f23,negative).
example(e522,f24,negative).
example(e522,f25,positive).
example(e522,f26,negative).
example(e522,f27,negative).
example(e522,f28,negative).
example(e522,f29,negative).
example(e522,f30,negative).
example(e522,f31,positive).
example(e522,f32,negative).
example(e522,f33,positive).
example(e522,f34,negative).
example(e523,f1,negative).
example(e523,f2,negative).
example(e523,f3,negative).
example(e523,f4,negative).
example(e523,f5,negative).
example(e523,f6,negative).
example(e523,f7,negative).
example(e523,f8,positive).
example(e523,f9,negative).
example(e523,f10,negative).
example(e523,f11,positive).
example(e523,f12,negative).
example(e523,f13,negative).
example(e523,f14,negative).
example(e523,f15,negative).
example(e523,f16,negative).
example(e523,f17,negative).
example(e523,f18,negative).
example(e523,f19,negative).
example(e523,f20,negative).
example(e523,f21,negative).
example(e523,f22,negative).
example(e523,f23,negative).
example(e523,f24,negative).
example(e523,f25,positive).
example(e523,f26,negative).
example(e523,f27,negative).
example(e523,f28,negative).
example(e523,f29,negative).
example(e523,f30,positive).
example(e523,f31,positive).
example(e523,f32,positive).
example(e523,f33,positive).
example(e523,f34,negative).
example(e524,f1,negative).
example(e524,f2,negative).
example(e524,f3,negative).
example(e524,f4,negative).
example(e524,f5,negative).
example(e524,f6,negative).
example(e524,f7,negative).
example(e524,f8,positive).
example(e524,f9,negative).
example(e524,f10,negative).
example(e524,f11,negative).
example(e524,f12,negative).
example(e524,f13,negative).
example(e524,f14,negative).
example(e524,f15,negative).
example(e524,f16,negative).
example(e524,f17,negative).
example(e524,f18,negative).
example(e524,f19,positive).
example(e524,f20,negative).
example(e524,f21,negative).
example(e524,f22,negative).
example(e524,f23,negative).
example(e524,f24,negative).
example(e524,f25,positive).
example(e524,f26,negative).
example(e524,f27,negative).
example(e524,f28,negative).
example(e524,f29,negative).
example(e524,f30,positive).
example(e524,f31,positive).
example(e524,f32,negative).
example(e524,f33,positive).
example(e524,f34,negative).
example(e525,f1,negative).
example(e525,f2,negative).
example(e525,f3,negative).
example(e525,f4,negative).
example(e525,f5,negative).
example(e525,f6,positive).
example(e525,f7,positive).
example(e525,f8,positive).
example(e525,f9,negative).
example(e525,f10,negative).
example(e525,f11,negative).
example(e525,f12,negative).
example(e525,f13,negative).
example(e525,f14,positive).
example(e525,f15,negative).
example(e525,f16,negative).
example(e525,f17,negative).
example(e525,f18,negative).
example(e525,f19,negative).
example(e525,f20,negative).
example(e525,f21,negative).
example(e525,f22,negative).
example(e525,f23,negative).
example(e525,f24,negative).
example(e525,f25,positive).
example(e525,f26,negative).
example(e525,f27,negative).
example(e525,f28,negative).
example(e525,f29,negative).
example(e525,f30,positive).
example(e525,f31,positive).
example(e525,f32,negative).
example(e525,f33,positive).
example(e525,f34,negative).
example(e526,f1,negative).
example(e526,f2,negative).
example(e526,f3,negative).
example(e526,f4,positive).
example(e526,f5,negative).
example(e526,f6,positive).
example(e526,f7,positive).
example(e526,f8,positive).
example(e526,f9,negative).
example(e526,f10,negative).
example(e526,f11,negative).
example(e526,f12,negative).
example(e526,f13,negative).
example(e526,f14,negative).
example(e526,f15,negative).
example(e526,f16,negative).
example(e526,f17,negative).
example(e526,f18,negative).
example(e526,f19,negative).
example(e526,f20,negative).
example(e526,f21,positive).
example(e526,f22,negative).
example(e526,f23,negative).
example(e526,f24,negative).
example(e526,f25,positive).
example(e526,f26,negative).
example(e526,f27,negative).
example(e526,f28,negative).
example(e526,f29,negative).
example(e526,f30,negative).
example(e526,f31,negative).
example(e526,f32,negative).
example(e526,f33,positive).
example(e526,f34,negative).
example(e527,f1,negative).
example(e527,f2,negative).
example(e527,f3,negative).
example(e527,f4,positive).
example(e527,f5,negative).
example(e527,f6,positive).
example(e527,f7,positive).
example(e527,f8,negative).
example(e527,f9,negative).
example(e527,f10,negative).
example(e527,f11,negative).
example(e527,f12,negative).
example(e527,f13,negative).
example(e527,f14,negative).
example(e527,f15,negative).
example(e527,f16,negative).
example(e527,f17,negative).
example(e527,f18,negative).
example(e527,f19,negative).
example(e527,f20,negative).
example(e527,f21,negative).
example(e527,f22,positive).
example(e527,f23,negative).
example(e527,f24,negative).
example(e527,f25,negative).
example(e527,f26,negative).
example(e527,f27,negative).
example(e527,f28,positive).
example(e527,f29,negative).
example(e527,f30,positive).
example(e527,f31,negative).
example(e527,f32,positive).
example(e527,f33,positive).
example(e527,f34,negative).
example(e528,f1,negative).
example(e528,f2,negative).
example(e528,f3,negative).
example(e528,f4,positive).
example(e528,f5,negative).
example(e528,f6,positive).
example(e528,f7,negative).
example(e528,f8,positive).
example(e528,f9,negative).
example(e528,f10,negative).
example(e528,f11,positive).
example(e528,f12,negative).
example(e528,f13,negative).
example(e528,f14,negative).
example(e528,f15,negative).
example(e528,f16,negative).
example(e528,f17,negative).
example(e528,f18,negative).
example(e528,f19,negative).
example(e528,f20,negative).
example(e528,f21,negative).
example(e528,f22,negative).
example(e528,f23,negative).
example(e528,f24,negative).
example(e528,f25,positive).
example(e528,f26,negative).
example(e528,f27,negative).
example(e528,f28,negative).
example(e528,f29,negative).
example(e528,f30,negative).
example(e528,f31,negative).
example(e528,f32,positive).
example(e528,f33,positive).
example(e528,f34,negative).
example(e529,f1,negative).
example(e529,f2,negative).
example(e529,f3,negative).
example(e529,f4,positive).
example(e529,f5,negative).
example(e529,f6,negative).
example(e529,f7,negative).
example(e529,f8,negative).
example(e529,f9,negative).
example(e529,f10,negative).
example(e529,f11,negative).
example(e529,f12,negative).
example(e529,f13,negative).
example(e529,f14,negative).
example(e529,f15,negative).
example(e529,f16,negative).
example(e529,f17,negative).
example(e529,f18,negative).
example(e529,f19,negative).
example(e529,f20,negative).
example(e529,f21,negative).
example(e529,f22,negative).
example(e529,f23,negative).
example(e529,f24,negative).
example(e529,f25,negative).
example(e529,f26,negative).
example(e529,f27,negative).
example(e529,f28,negative).
example(e529,f29,negative).
example(e529,f30,negative).
example(e529,f31,negative).
example(e529,f32,negative).
example(e529,f33,positive).
example(e529,f34,negative).
example(e530,f1,negative).
example(e530,f2,negative).
example(e530,f3,negative).
example(e530,f4,negative).
example(e530,f5,negative).
example(e530,f6,negative).
example(e530,f7,negative).
example(e530,f8,positive).
example(e530,f9,negative).
example(e530,f10,negative).
example(e530,f11,negative).
example(e530,f12,negative).
example(e530,f13,negative).
example(e530,f14,negative).
example(e530,f15,negative).
example(e530,f16,negative).
example(e530,f17,negative).
example(e530,f18,negative).
example(e530,f19,negative).
example(e530,f20,negative).
example(e530,f21,positive).
example(e530,f22,negative).
example(e530,f23,negative).
example(e530,f24,negative).
example(e530,f25,positive).
example(e530,f26,negative).
example(e530,f27,negative).
example(e530,f28,negative).
example(e530,f29,negative).
example(e530,f30,negative).
example(e530,f31,positive).
example(e530,f32,positive).
example(e530,f33,positive).
example(e530,f34,negative).
example(e531,f1,negative).
example(e531,f2,negative).
example(e531,f3,negative).
example(e531,f4,positive).
example(e531,f5,negative).
example(e531,f6,positive).
example(e531,f7,positive).
example(e531,f8,negative).
example(e531,f9,negative).
example(e531,f10,negative).
example(e531,f11,negative).
example(e531,f12,negative).
example(e531,f13,negative).
example(e531,f14,negative).
example(e531,f15,negative).
example(e531,f16,negative).
example(e531,f17,negative).
example(e531,f18,negative).
example(e531,f19,negative).
example(e531,f20,negative).
example(e531,f21,negative).
example(e531,f22,positive).
example(e531,f23,negative).
example(e531,f24,negative).
example(e531,f25,positive).
example(e531,f26,negative).
example(e531,f27,negative).
example(e531,f28,negative).
example(e531,f29,negative).
example(e531,f30,negative).
example(e531,f31,negative).
example(e531,f32,positive).
example(e531,f33,positive).
example(e531,f34,negative).
example(e532,f1,negative).
example(e532,f2,negative).
example(e532,f3,negative).
example(e532,f4,positive).
example(e532,f5,negative).
example(e532,f6,positive).
example(e532,f7,negative).
example(e532,f8,positive).
example(e532,f9,negative).
example(e532,f10,negative).
example(e532,f11,positive).
example(e532,f12,negative).
example(e532,f13,negative).
example(e532,f14,negative).
example(e532,f15,negative).
example(e532,f16,negative).
example(e532,f17,negative).
example(e532,f18,negative).
example(e532,f19,negative).
example(e532,f20,negative).
example(e532,f21,negative).
example(e532,f22,negative).
example(e532,f23,negative).
example(e532,f24,negative).
example(e532,f25,positive).
example(e532,f26,negative).
example(e532,f27,negative).
example(e532,f28,negative).
example(e532,f29,negative).
example(e532,f30,negative).
example(e532,f31,negative).
example(e532,f32,negative).
example(e532,f33,negative).
example(e532,f34,negative).
example(e533,f1,negative).
example(e533,f2,negative).
example(e533,f3,negative).
example(e533,f4,positive).
example(e533,f5,negative).
example(e533,f6,positive).
example(e533,f7,positive).
example(e533,f8,positive).
example(e533,f9,negative).
example(e533,f10,negative).
example(e533,f11,negative).
example(e533,f12,negative).
example(e533,f13,negative).
example(e533,f14,negative).
example(e533,f15,negative).
example(e533,f16,negative).
example(e533,f17,negative).
example(e533,f18,negative).
example(e533,f19,negative).
example(e533,f20,positive).
example(e533,f21,negative).
example(e533,f22,negative).
example(e533,f23,negative).
example(e533,f24,negative).
example(e533,f25,positive).
example(e533,f26,negative).
example(e533,f27,negative).
example(e533,f28,negative).
example(e533,f29,negative).
example(e533,f30,negative).
example(e533,f31,negative).
example(e533,f32,negative).
example(e533,f33,negative).
example(e533,f34,negative).
example(e534,f1,negative).
example(e534,f2,negative).
example(e534,f3,negative).
example(e534,f4,negative).
example(e534,f5,negative).
example(e534,f6,negative).
example(e534,f7,positive).
example(e534,f8,positive).
example(e534,f9,negative).
example(e534,f10,negative).
example(e534,f11,negative).
example(e534,f12,negative).
example(e534,f13,negative).
example(e534,f14,negative).
example(e534,f15,negative).
example(e534,f16,negative).
example(e534,f17,negative).
example(e534,f18,negative).
example(e534,f19,negative).
example(e534,f20,negative).
example(e534,f21,negative).
example(e534,f22,positive).
example(e534,f23,negative).
example(e534,f24,negative).
example(e534,f25,negative).
example(e534,f26,negative).
example(e534,f27,negative).
example(e534,f28,positive).
example(e534,f29,negative).
example(e534,f30,positive).
example(e534,f31,positive).
example(e534,f32,negative).
example(e534,f33,positive).
example(e534,f34,negative).
example(e535,f1,negative).
example(e535,f2,negative).
example(e535,f3,negative).
example(e535,f4,positive).
example(e535,f5,negative).
example(e535,f6,positive).
example(e535,f7,positive).
example(e535,f8,positive).
example(e535,f9,negative).
example(e535,f10,negative).
example(e535,f11,negative).
example(e535,f12,negative).
example(e535,f13,negative).
example(e535,f14,negative).
example(e535,f15,negative).
example(e535,f16,negative).
example(e535,f17,negative).
example(e535,f18,negative).
example(e535,f19,positive).
example(e535,f20,negative).
example(e535,f21,negative).
example(e535,f22,negative).
example(e535,f23,negative).
example(e535,f24,negative).
example(e535,f25,positive).
example(e535,f26,negative).
example(e535,f27,negative).
example(e535,f28,negative).
example(e535,f29,negative).
example(e535,f30,positive).
example(e535,f31,negative).
example(e535,f32,positive).
example(e535,f33,positive).
example(e535,f34,negative).
example(e536,f1,negative).
example(e536,f2,negative).
example(e536,f3,negative).
example(e536,f4,negative).
example(e536,f5,negative).
example(e536,f6,negative).
example(e536,f7,negative).
example(e536,f8,positive).
example(e536,f9,negative).
example(e536,f10,negative).
example(e536,f11,positive).
example(e536,f12,negative).
example(e536,f13,negative).
example(e536,f14,negative).
example(e536,f15,negative).
example(e536,f16,negative).
example(e536,f17,negative).
example(e536,f18,negative).
example(e536,f19,negative).
example(e536,f20,negative).
example(e536,f21,negative).
example(e536,f22,negative).
example(e536,f23,negative).
example(e536,f24,negative).
example(e536,f25,positive).
example(e536,f26,negative).
example(e536,f27,negative).
example(e536,f28,negative).
example(e536,f29,negative).
example(e536,f30,positive).
example(e536,f31,positive).
example(e536,f32,negative).
example(e536,f33,positive).
example(e536,f34,negative).
example(e537,f1,negative).
example(e537,f2,negative).
example(e537,f3,positive).
example(e537,f4,positive).
example(e537,f5,negative).
example(e537,f6,positive).
example(e537,f7,positive).
example(e537,f8,positive).
example(e537,f9,negative).
example(e537,f10,negative).
example(e537,f11,negative).
example(e537,f12,negative).
example(e537,f13,negative).
example(e537,f14,negative).
example(e537,f15,negative).
example(e537,f16,positive).
example(e537,f17,negative).
example(e537,f18,negative).
example(e537,f19,negative).
example(e537,f20,negative).
example(e537,f21,negative).
example(e537,f22,negative).
example(e537,f23,negative).
example(e537,f24,negative).
example(e537,f25,negative).
example(e537,f26,positive).
example(e537,f27,negative).
example(e537,f28,negative).
example(e537,f29,negative).
example(e537,f30,negative).
example(e537,f31,negative).
example(e537,f32,negative).
example(e537,f33,positive).
example(e537,f34,negative).
example(e538,f1,negative).
example(e538,f2,negative).
example(e538,f3,negative).
example(e538,f4,positive).
example(e538,f5,negative).
example(e538,f6,positive).
example(e538,f7,positive).
example(e538,f8,positive).
example(e538,f9,negative).
example(e538,f10,negative).
example(e538,f11,negative).
example(e538,f12,negative).
example(e538,f13,negative).
example(e538,f14,negative).
example(e538,f15,negative).
example(e538,f16,negative).
example(e538,f17,negative).
example(e538,f18,negative).
example(e538,f19,negative).
example(e538,f20,negative).
example(e538,f21,positive).
example(e538,f22,negative).
example(e538,f23,negative).
example(e538,f24,negative).
example(e538,f25,negative).
example(e538,f26,negative).
example(e538,f27,negative).
example(e538,f28,positive).
example(e538,f29,negative).
example(e538,f30,negative).
example(e538,f31,negative).
example(e538,f32,positive).
example(e538,f33,positive).
example(e538,f34,negative).
example(e539,f1,negative).
example(e539,f2,negative).
example(e539,f3,negative).
example(e539,f4,negative).
example(e539,f5,positive).
example(e539,f6,negative).
example(e539,f7,negative).
example(e539,f8,positive).
example(e539,f9,negative).
example(e539,f10,negative).
example(e539,f11,positive).
example(e539,f12,negative).
example(e539,f13,negative).
example(e539,f14,negative).
example(e539,f15,negative).
example(e539,f16,negative).
example(e539,f17,negative).
example(e539,f18,negative).
example(e539,f19,negative).
example(e539,f20,negative).
example(e539,f21,negative).
example(e539,f22,negative).
example(e539,f23,negative).
example(e539,f24,negative).
example(e539,f25,negative).
example(e539,f26,negative).
example(e539,f27,negative).
example(e539,f28,positive).
example(e539,f29,negative).
example(e539,f30,positive).
example(e539,f31,positive).
example(e539,f32,negative).
example(e539,f33,positive).
example(e539,f34,negative).
example(e540,f1,negative).
example(e540,f2,negative).
example(e540,f3,negative).
example(e540,f4,negative).
example(e540,f5,negative).
example(e540,f6,negative).
example(e540,f7,positive).
example(e540,f8,positive).
example(e540,f9,negative).
example(e540,f10,negative).
example(e540,f11,negative).
example(e540,f12,negative).
example(e540,f13,positive).
example(e540,f14,negative).
example(e540,f15,negative).
example(e540,f16,negative).
example(e540,f17,negative).
example(e540,f18,negative).
example(e540,f19,negative).
example(e540,f20,negative).
example(e540,f21,negative).
example(e540,f22,negative).
example(e540,f23,negative).
example(e540,f24,negative).
example(e540,f25,negative).
example(e540,f26,negative).
example(e540,f27,negative).
example(e540,f28,positive).
example(e540,f29,negative).
example(e540,f30,positive).
example(e540,f31,positive).
example(e540,f32,negative).
example(e540,f33,positive).
example(e540,f34,negative).
example(e541,f1,negative).
example(e541,f2,negative).
example(e541,f3,negative).
example(e541,f4,positive).
example(e541,f5,negative).
example(e541,f6,positive).
example(e541,f7,negative).
example(e541,f8,positive).
example(e541,f9,negative).
example(e541,f10,negative).
example(e541,f11,negative).
example(e541,f12,negative).
example(e541,f13,negative).
example(e541,f14,negative).
example(e541,f15,negative).
example(e541,f16,positive).
example(e541,f17,negative).
example(e541,f18,negative).
example(e541,f19,negative).
example(e541,f20,negative).
example(e541,f21,negative).
example(e541,f22,negative).
example(e541,f23,negative).
example(e541,f24,negative).
example(e541,f25,positive).
example(e541,f26,negative).
example(e541,f27,negative).
example(e541,f28,negative).
example(e541,f29,negative).
example(e541,f30,negative).
example(e541,f31,negative).
example(e541,f32,negative).
example(e541,f33,positive).
example(e541,f34,negative).
example(e542,f1,negative).
example(e542,f2,negative).
example(e542,f3,positive).
example(e542,f4,positive).
example(e542,f5,negative).
example(e542,f6,positive).
example(e542,f7,positive).
example(e542,f8,positive).
example(e542,f9,negative).
example(e542,f10,negative).
example(e542,f11,negative).
example(e542,f12,negative).
example(e542,f13,negative).
example(e542,f14,negative).
example(e542,f15,negative).
example(e542,f16,positive).
example(e542,f17,negative).
example(e542,f18,negative).
example(e542,f19,negative).
example(e542,f20,negative).
example(e542,f21,negative).
example(e542,f22,negative).
example(e542,f23,negative).
example(e542,f24,negative).
example(e542,f25,negative).
example(e542,f26,positive).
example(e542,f27,negative).
example(e542,f28,negative).
example(e542,f29,negative).
example(e542,f30,negative).
example(e542,f31,negative).
example(e542,f32,positive).
example(e542,f33,positive).
example(e542,f34,negative).
example(e543,f1,negative).
example(e543,f2,negative).
example(e543,f3,negative).
example(e543,f4,negative).
example(e543,f5,positive).
example(e543,f6,negative).
example(e543,f7,positive).
example(e543,f8,positive).
example(e543,f9,negative).
example(e543,f10,negative).
example(e543,f11,negative).
example(e543,f12,negative).
example(e543,f13,negative).
example(e543,f14,negative).
example(e543,f15,negative).
example(e543,f16,negative).
example(e543,f17,negative).
example(e543,f18,negative).
example(e543,f19,negative).
example(e543,f20,positive).
example(e543,f21,negative).
example(e543,f22,negative).
example(e543,f23,negative).
example(e543,f24,negative).
example(e543,f25,positive).
example(e543,f26,negative).
example(e543,f27,negative).
example(e543,f28,negative).
example(e543,f29,negative).
example(e543,f30,positive).
example(e543,f31,positive).
example(e543,f32,positive).
example(e543,f33,positive).
example(e543,f34,negative).
example(e544,f1,negative).
example(e544,f2,negative).
example(e544,f3,negative).
example(e544,f4,positive).
example(e544,f5,negative).
example(e544,f6,negative).
example(e544,f7,positive).
example(e544,f8,negative).
example(e544,f9,negative).
example(e544,f10,negative).
example(e544,f11,negative).
example(e544,f12,negative).
example(e544,f13,negative).
example(e544,f14,negative).
example(e544,f15,negative).
example(e544,f16,negative).
example(e544,f17,negative).
example(e544,f18,negative).
example(e544,f19,negative).
example(e544,f20,negative).
example(e544,f21,positive).
example(e544,f22,negative).
example(e544,f23,negative).
example(e544,f24,negative).
example(e544,f25,positive).
example(e544,f26,negative).
example(e544,f27,negative).
example(e544,f28,negative).
example(e544,f29,negative).
example(e544,f30,negative).
example(e544,f31,negative).
example(e544,f32,negative).
example(e544,f33,positive).
example(e544,f34,negative).
example(e545,f1,negative).
example(e545,f2,negative).
example(e545,f3,negative).
example(e545,f4,negative).
example(e545,f5,negative).
example(e545,f6,negative).
example(e545,f7,positive).
example(e545,f8,positive).
example(e545,f9,negative).
example(e545,f10,negative).
example(e545,f11,positive).
example(e545,f12,negative).
example(e545,f13,negative).
example(e545,f14,negative).
example(e545,f15,negative).
example(e545,f16,negative).
example(e545,f17,negative).
example(e545,f18,negative).
example(e545,f19,negative).
example(e545,f20,negative).
example(e545,f21,negative).
example(e545,f22,negative).
example(e545,f23,negative).
example(e545,f24,negative).
example(e545,f25,negative).
example(e545,f26,negative).
example(e545,f27,negative).
example(e545,f28,positive).
example(e545,f29,negative).
example(e545,f30,positive).
example(e545,f31,positive).
example(e545,f32,positive).
example(e545,f33,positive).
example(e545,f34,negative).
example(e546,f1,negative).
example(e546,f2,negative).
example(e546,f3,negative).
example(e546,f4,positive).
example(e546,f5,negative).
example(e546,f6,negative).
example(e546,f7,positive).
example(e546,f8,negative).
example(e546,f9,negative).
example(e546,f10,negative).
example(e546,f11,negative).
example(e546,f12,negative).
example(e546,f13,negative).
example(e546,f14,negative).
example(e546,f15,negative).
example(e546,f16,negative).
example(e546,f17,negative).
example(e546,f18,negative).
example(e546,f19,negative).
example(e546,f20,negative).
example(e546,f21,positive).
example(e546,f22,negative).
example(e546,f23,negative).
example(e546,f24,negative).
example(e546,f25,positive).
example(e546,f26,negative).
example(e546,f27,negative).
example(e546,f28,negative).
example(e546,f29,negative).
example(e546,f30,negative).
example(e546,f31,negative).
example(e546,f32,negative).
example(e546,f33,positive).
example(e546,f34,negative).
example(e547,f1,negative).
example(e547,f2,negative).
example(e547,f3,negative).
example(e547,f4,positive).
example(e547,f5,negative).
example(e547,f6,negative).
example(e547,f7,positive).
example(e547,f8,positive).
example(e547,f9,negative).
example(e547,f10,negative).
example(e547,f11,negative).
example(e547,f12,negative).
example(e547,f13,negative).
example(e547,f14,negative).
example(e547,f15,negative).
example(e547,f16,negative).
example(e547,f17,negative).
example(e547,f18,negative).
example(e547,f19,negative).
example(e547,f20,negative).
example(e547,f21,negative).
example(e547,f22,negative).
example(e547,f23,negative).
example(e547,f24,negative).
example(e547,f25,negative).
example(e547,f26,negative).
example(e547,f27,negative).
example(e547,f28,negative).
example(e547,f29,negative).
example(e547,f30,negative).
example(e547,f31,negative).
example(e547,f32,negative).
example(e547,f33,positive).
example(e547,f34,negative).
example(e548,f1,negative).
example(e548,f2,negative).
example(e548,f3,negative).
example(e548,f4,positive).
example(e548,f5,positive).
example(e548,f6,positive).
example(e548,f7,positive).
example(e548,f8,positive).
example(e548,f9,negative).
example(e548,f10,negative).
example(e548,f11,negative).
example(e548,f12,negative).
example(e548,f13,negative).
example(e548,f14,negative).
example(e548,f15,negative).
example(e548,f16,negative).
example(e548,f17,negative).
example(e548,f18,negative).
example(e548,f19,negative).
example(e548,f20,positive).
example(e548,f21,negative).
example(e548,f22,negative).
example(e548,f23,negative).
example(e548,f24,negative).
example(e548,f25,positive).
example(e548,f26,negative).
example(e548,f27,negative).
example(e548,f28,negative).
example(e548,f29,negative).
example(e548,f30,negative).
example(e548,f31,negative).
example(e548,f32,negative).
example(e548,f33,negative).
example(e548,f34,negative).
example(e549,f1,negative).
example(e549,f2,negative).
example(e549,f3,negative).
example(e549,f4,positive).
example(e549,f5,negative).
example(e549,f6,positive).
example(e549,f7,negative).
example(e549,f8,negative).
example(e549,f9,negative).
example(e549,f10,negative).
example(e549,f11,negative).
example(e549,f12,negative).
example(e549,f13,negative).
example(e549,f14,negative).
example(e549,f15,negative).
example(e549,f16,positive).
example(e549,f17,negative).
example(e549,f18,negative).
example(e549,f19,negative).
example(e549,f20,negative).
example(e549,f21,negative).
example(e549,f22,negative).
example(e549,f23,negative).
example(e549,f24,negative).
example(e549,f25,negative).
example(e549,f26,negative).
example(e549,f27,negative).
example(e549,f28,positive).
example(e549,f29,negative).
example(e549,f30,negative).
example(e549,f31,negative).
example(e549,f32,positive).
example(e549,f33,positive).
example(e549,f34,negative).
example(e550,f1,negative).
example(e550,f2,negative).
example(e550,f3,negative).
example(e550,f4,positive).
example(e550,f5,positive).
example(e550,f6,positive).
example(e550,f7,positive).
example(e550,f8,negative).
example(e550,f9,negative).
example(e550,f10,negative).
example(e550,f11,negative).
example(e550,f12,negative).
example(e550,f13,negative).
example(e550,f14,negative).
example(e550,f15,positive).
example(e550,f16,negative).
example(e550,f17,negative).
example(e550,f18,negative).
example(e550,f19,negative).
example(e550,f20,negative).
example(e550,f21,negative).
example(e550,f22,negative).
example(e550,f23,negative).
example(e550,f24,negative).
example(e550,f25,positive).
example(e550,f26,negative).
example(e550,f27,negative).
example(e550,f28,negative).
example(e550,f29,negative).
example(e550,f30,positive).
example(e550,f31,negative).
example(e550,f32,negative).
example(e550,f33,negative).
example(e550,f34,negative).
example(e551,f1,negative).
example(e551,f2,negative).
example(e551,f3,negative).
example(e551,f4,negative).
example(e551,f5,negative).
example(e551,f6,negative).
example(e551,f7,positive).
example(e551,f8,positive).
example(e551,f9,negative).
example(e551,f10,negative).
example(e551,f11,negative).
example(e551,f12,negative).
example(e551,f13,negative).
example(e551,f14,negative).
example(e551,f15,negative).
example(e551,f16,negative).
example(e551,f17,negative).
example(e551,f18,negative).
example(e551,f19,negative).
example(e551,f20,negative).
example(e551,f21,negative).
example(e551,f22,positive).
example(e551,f23,negative).
example(e551,f24,negative).
example(e551,f25,positive).
example(e551,f26,negative).
example(e551,f27,negative).
example(e551,f28,negative).
example(e551,f29,negative).
example(e551,f30,positive).
example(e551,f31,positive).
example(e551,f32,positive).
example(e551,f33,positive).
example(e551,f34,negative).
example(e552,f1,negative).
example(e552,f2,negative).
example(e552,f3,negative).
example(e552,f4,negative).
example(e552,f5,negative).
example(e552,f6,negative).
example(e552,f7,positive).
example(e552,f8,positive).
example(e552,f9,negative).
example(e552,f10,negative).
example(e552,f11,negative).
example(e552,f12,negative).
example(e552,f13,negative).
example(e552,f14,negative).
example(e552,f15,negative).
example(e552,f16,negative).
example(e552,f17,negative).
example(e552,f18,negative).
example(e552,f19,negative).
example(e552,f20,positive).
example(e552,f21,negative).
example(e552,f22,negative).
example(e552,f23,negative).
example(e552,f24,negative).
example(e552,f25,positive).
example(e552,f26,negative).
example(e552,f27,negative).
example(e552,f28,negative).
example(e552,f29,negative).
example(e552,f30,positive).
example(e552,f31,positive).
example(e552,f32,negative).
example(e552,f33,positive).
example(e552,f34,negative).
example(e553,f1,negative).
example(e553,f2,negative).
example(e553,f3,negative).
example(e553,f4,positive).
example(e553,f5,negative).
example(e553,f6,negative).
example(e553,f7,negative).
example(e553,f8,positive).
example(e553,f9,negative).
example(e553,f10,negative).
example(e553,f11,negative).
example(e553,f12,negative).
example(e553,f13,negative).
example(e553,f14,negative).
example(e553,f15,negative).
example(e553,f16,negative).
example(e553,f17,negative).
example(e553,f18,negative).
example(e553,f19,positive).
example(e553,f20,negative).
example(e553,f21,negative).
example(e553,f22,negative).
example(e553,f23,negative).
example(e553,f24,negative).
example(e553,f25,positive).
example(e553,f26,negative).
example(e553,f27,negative).
example(e553,f28,negative).
example(e553,f29,negative).
example(e553,f30,negative).
example(e553,f31,negative).
example(e553,f32,negative).
example(e553,f33,positive).
example(e553,f34,negative).
example(e554,f1,negative).
example(e554,f2,negative).
example(e554,f3,positive).
example(e554,f4,negative).
example(e554,f5,negative).
example(e554,f6,positive).
example(e554,f7,positive).
example(e554,f8,positive).
example(e554,f9,negative).
example(e554,f10,negative).
example(e554,f11,negative).
example(e554,f12,negative).
example(e554,f13,negative).
example(e554,f14,negative).
example(e554,f15,negative).
example(e554,f16,negative).
example(e554,f17,negative).
example(e554,f18,negative).
example(e554,f19,negative).
example(e554,f20,negative).
example(e554,f21,negative).
example(e554,f22,negative).
example(e554,f23,negative).
example(e554,f24,negative).
example(e554,f25,negative).
example(e554,f26,negative).
example(e554,f27,negative).
example(e554,f28,negative).
example(e554,f29,negative).
example(e554,f30,positive).
example(e554,f31,positive).
example(e554,f32,negative).
example(e554,f33,positive).
example(e554,f34,negative).
example(e555,f1,negative).
example(e555,f2,negative).
example(e555,f3,positive).
example(e555,f4,positive).
example(e555,f5,negative).
example(e555,f6,positive).
example(e555,f7,negative).
example(e555,f8,negative).
example(e555,f9,negative).
example(e555,f10,negative).
example(e555,f11,negative).
example(e555,f12,negative).
example(e555,f13,negative).
example(e555,f14,negative).
example(e555,f15,negative).
example(e555,f16,negative).
example(e555,f17,negative).
example(e555,f18,negative).
example(e555,f19,negative).
example(e555,f20,negative).
example(e555,f21,negative).
example(e555,f22,negative).
example(e555,f23,negative).
example(e555,f24,negative).
example(e555,f25,negative).
example(e555,f26,negative).
example(e555,f27,negative).
example(e555,f28,negative).
example(e555,f29,negative).
example(e555,f30,positive).
example(e555,f31,negative).
example(e555,f32,negative).
example(e555,f33,positive).
example(e555,f34,negative).
example(e556,f1,negative).
example(e556,f2,negative).
example(e556,f3,negative).
example(e556,f4,positive).
example(e556,f5,negative).
example(e556,f6,negative).
example(e556,f7,positive).
example(e556,f8,negative).
example(e556,f9,negative).
example(e556,f10,negative).
example(e556,f11,negative).
example(e556,f12,negative).
example(e556,f13,negative).
example(e556,f14,negative).
example(e556,f15,negative).
example(e556,f16,positive).
example(e556,f17,negative).
example(e556,f18,negative).
example(e556,f19,negative).
example(e556,f20,negative).
example(e556,f21,negative).
example(e556,f22,negative).
example(e556,f23,negative).
example(e556,f24,negative).
example(e556,f25,positive).
example(e556,f26,negative).
example(e556,f27,negative).
example(e556,f28,negative).
example(e556,f29,negative).
example(e556,f30,negative).
example(e556,f31,negative).
example(e556,f32,positive).
example(e556,f33,positive).
example(e556,f34,negative).
example(e557,f1,negative).
example(e557,f2,negative).
example(e557,f3,positive).
example(e557,f4,positive).
example(e557,f5,negative).
example(e557,f6,positive).
example(e557,f7,negative).
example(e557,f8,negative).
example(e557,f9,negative).
example(e557,f10,negative).
example(e557,f11,negative).
example(e557,f12,negative).
example(e557,f13,negative).
example(e557,f14,negative).
example(e557,f15,negative).
example(e557,f16,negative).
example(e557,f17,negative).
example(e557,f18,negative).
example(e557,f19,negative).
example(e557,f20,negative).
example(e557,f21,positive).
example(e557,f22,negative).
example(e557,f23,negative).
example(e557,f24,negative).
example(e557,f25,positive).
example(e557,f26,negative).
example(e557,f27,negative).
example(e557,f28,negative).
example(e557,f29,negative).
example(e557,f30,negative).
example(e557,f31,negative).
example(e557,f32,negative).
example(e557,f33,positive).
example(e557,f34,negative).
example(e558,f1,negative).
example(e558,f2,negative).
example(e558,f3,negative).
example(e558,f4,positive).
example(e558,f5,negative).
example(e558,f6,negative).
example(e558,f7,positive).
example(e558,f8,positive).
example(e558,f9,negative).
example(e558,f10,negative).
example(e558,f11,negative).
example(e558,f12,negative).
example(e558,f13,negative).
example(e558,f14,negative).
example(e558,f15,negative).
example(e558,f16,negative).
example(e558,f17,negative).
example(e558,f18,negative).
example(e558,f19,negative).
example(e558,f20,negative).
example(e558,f21,positive).
example(e558,f22,negative).
example(e558,f23,negative).
example(e558,f24,negative).
example(e558,f25,negative).
example(e558,f26,negative).
example(e558,f27,negative).
example(e558,f28,positive).
example(e558,f29,negative).
example(e558,f30,positive).
example(e558,f31,negative).
example(e558,f32,negative).
example(e558,f33,positive).
example(e558,f34,negative).
example(e559,f1,negative).
example(e559,f2,negative).
example(e559,f3,negative).
example(e559,f4,negative).
example(e559,f5,negative).
example(e559,f6,negative).
example(e559,f7,positive).
example(e559,f8,positive).
example(e559,f9,negative).
example(e559,f10,negative).
example(e559,f11,negative).
example(e559,f12,negative).
example(e559,f13,negative).
example(e559,f14,negative).
example(e559,f15,negative).
example(e559,f16,negative).
example(e559,f17,negative).
example(e559,f18,negative).
example(e559,f19,negative).
example(e559,f20,negative).
example(e559,f21,negative).
example(e559,f22,negative).
example(e559,f23,negative).
example(e559,f24,negative).
example(e559,f25,negative).
example(e559,f26,negative).
example(e559,f27,negative).
example(e559,f28,negative).
example(e559,f29,negative).
example(e559,f30,negative).
example(e559,f31,positive).
example(e559,f32,negative).
example(e559,f33,positive).
example(e559,f34,negative).
example(e560,f1,negative).
example(e560,f2,negative).
example(e560,f3,negative).
example(e560,f4,negative).
example(e560,f5,positive).
example(e560,f6,negative).
example(e560,f7,positive).
example(e560,f8,positive).
example(e560,f9,negative).
example(e560,f10,negative).
example(e560,f11,negative).
example(e560,f12,negative).
example(e560,f13,negative).
example(e560,f14,negative).
example(e560,f15,negative).
example(e560,f16,negative).
example(e560,f17,negative).
example(e560,f18,negative).
example(e560,f19,negative).
example(e560,f20,negative).
example(e560,f21,positive).
example(e560,f22,negative).
example(e560,f23,negative).
example(e560,f24,negative).
example(e560,f25,negative).
example(e560,f26,positive).
example(e560,f27,negative).
example(e560,f28,negative).
example(e560,f29,negative).
example(e560,f30,positive).
example(e560,f31,positive).
example(e560,f32,negative).
example(e560,f33,positive).
example(e560,f34,negative).
example(e561,f1,negative).
example(e561,f2,negative).
example(e561,f3,negative).
example(e561,f4,positive).
example(e561,f5,positive).
example(e561,f6,negative).
example(e561,f7,negative).
example(e561,f8,negative).
example(e561,f9,negative).
example(e561,f10,negative).
example(e561,f11,negative).
example(e561,f12,negative).
example(e561,f13,negative).
example(e561,f14,negative).
example(e561,f15,negative).
example(e561,f16,negative).
example(e561,f17,negative).
example(e561,f18,negative).
example(e561,f19,negative).
example(e561,f20,negative).
example(e561,f21,positive).
example(e561,f22,negative).
example(e561,f23,negative).
example(e561,f24,negative).
example(e561,f25,positive).
example(e561,f26,negative).
example(e561,f27,negative).
example(e561,f28,negative).
example(e561,f29,negative).
example(e561,f30,negative).
example(e561,f31,negative).
example(e561,f32,positive).
example(e561,f33,positive).
example(e561,f34,negative).
example(e562,f1,negative).
example(e562,f2,negative).
example(e562,f3,negative).
example(e562,f4,negative).
example(e562,f5,negative).
example(e562,f6,positive).
example(e562,f7,positive).
example(e562,f8,positive).
example(e562,f9,negative).
example(e562,f10,negative).
example(e562,f11,positive).
example(e562,f12,negative).
example(e562,f13,negative).
example(e562,f14,negative).
example(e562,f15,negative).
example(e562,f16,negative).
example(e562,f17,negative).
example(e562,f18,negative).
example(e562,f19,negative).
example(e562,f20,negative).
example(e562,f21,negative).
example(e562,f22,negative).
example(e562,f23,negative).
example(e562,f24,negative).
example(e562,f25,negative).
example(e562,f26,negative).
example(e562,f27,negative).
example(e562,f28,positive).
example(e562,f29,negative).
example(e562,f30,positive).
example(e562,f31,positive).
example(e562,f32,negative).
example(e562,f33,positive).
example(e562,f34,negative).
example(e563,f1,negative).
example(e563,f2,negative).
example(e563,f3,negative).
example(e563,f4,positive).
example(e563,f5,negative).
example(e563,f6,negative).
example(e563,f7,positive).
example(e563,f8,negative).
example(e563,f9,negative).
example(e563,f10,negative).
example(e563,f11,negative).
example(e563,f12,negative).
example(e563,f13,negative).
example(e563,f14,negative).
example(e563,f15,negative).
example(e563,f16,negative).
example(e563,f17,negative).
example(e563,f18,negative).
example(e563,f19,positive).
example(e563,f20,negative).
example(e563,f21,negative).
example(e563,f22,negative).
example(e563,f23,negative).
example(e563,f24,negative).
example(e563,f25,positive).
example(e563,f26,negative).
example(e563,f27,negative).
example(e563,f28,negative).
example(e563,f29,negative).
example(e563,f30,positive).
example(e563,f31,negative).
example(e563,f32,negative).
example(e563,f33,positive).
example(e563,f34,negative).
example(e564,f1,negative).
example(e564,f2,negative).
example(e564,f3,negative).
example(e564,f4,positive).
example(e564,f5,negative).
example(e564,f6,positive).
example(e564,f7,positive).
example(e564,f8,positive).
example(e564,f9,negative).
example(e564,f10,negative).
example(e564,f11,negative).
example(e564,f12,negative).
example(e564,f13,positive).
example(e564,f14,negative).
example(e564,f15,negative).
example(e564,f16,negative).
example(e564,f17,negative).
example(e564,f18,negative).
example(e564,f19,negative).
example(e564,f20,negative).
example(e564,f21,negative).
example(e564,f22,negative).
example(e564,f23,negative).
example(e564,f24,negative).
example(e564,f25,negative).
example(e564,f26,positive).
example(e564,f27,negative).
example(e564,f28,negative).
example(e564,f29,negative).
example(e564,f30,negative).
example(e564,f31,negative).
example(e564,f32,negative).
example(e564,f33,positive).
example(e564,f34,negative).
example(e565,f1,negative).
example(e565,f2,negative).
example(e565,f3,negative).
example(e565,f4,negative).
example(e565,f5,positive).
example(e565,f6,positive).
example(e565,f7,positive).
example(e565,f8,positive).
example(e565,f9,negative).
example(e565,f10,negative).
example(e565,f11,negative).
example(e565,f12,negative).
example(e565,f13,negative).
example(e565,f14,negative).
example(e565,f15,positive).
example(e565,f16,negative).
example(e565,f17,negative).
example(e565,f18,negative).
example(e565,f19,negative).
example(e565,f20,negative).
example(e565,f21,negative).
example(e565,f22,negative).
example(e565,f23,negative).
example(e565,f24,negative).
example(e565,f25,negative).
example(e565,f26,positive).
example(e565,f27,negative).
example(e565,f28,negative).
example(e565,f29,negative).
example(e565,f30,positive).
example(e565,f31,positive).
example(e565,f32,positive).
example(e565,f33,positive).
example(e565,f34,negative).
example(e566,f1,negative).
example(e566,f2,negative).
example(e566,f3,negative).
example(e566,f4,negative).
example(e566,f5,positive).
example(e566,f6,positive).
example(e566,f7,negative).
example(e566,f8,positive).
example(e566,f9,negative).
example(e566,f10,negative).
example(e566,f11,positive).
example(e566,f12,negative).
example(e566,f13,negative).
example(e566,f14,negative).
example(e566,f15,negative).
example(e566,f16,negative).
example(e566,f17,negative).
example(e566,f18,negative).
example(e566,f19,negative).
example(e566,f20,negative).
example(e566,f21,negative).
example(e566,f22,negative).
example(e566,f23,negative).
example(e566,f24,negative).
example(e566,f25,positive).
example(e566,f26,negative).
example(e566,f27,negative).
example(e566,f28,negative).
example(e566,f29,negative).
example(e566,f30,positive).
example(e566,f31,positive).
example(e566,f32,positive).
example(e566,f33,positive).
example(e566,f34,negative).
example(e567,f1,negative).
example(e567,f2,positive).
example(e567,f3,negative).
example(e567,f4,positive).
example(e567,f5,positive).
example(e567,f6,positive).
example(e567,f7,negative).
example(e567,f8,positive).
example(e567,f9,negative).
example(e567,f10,negative).
example(e567,f11,negative).
example(e567,f12,negative).
example(e567,f13,negative).
example(e567,f14,negative).
example(e567,f15,negative).
example(e567,f16,negative).
example(e567,f17,negative).
example(e567,f18,negative).
example(e567,f19,negative).
example(e567,f20,negative).
example(e567,f21,positive).
example(e567,f22,negative).
example(e567,f23,negative).
example(e567,f24,negative).
example(e567,f25,positive).
example(e567,f26,negative).
example(e567,f27,negative).
example(e567,f28,negative).
example(e567,f29,negative).
example(e567,f30,positive).
example(e567,f31,negative).
example(e567,f32,negative).
example(e567,f33,positive).
example(e567,f34,negative).
example(e568,f1,negative).
example(e568,f2,negative).
example(e568,f3,negative).
example(e568,f4,positive).
example(e568,f5,negative).
example(e568,f6,positive).
example(e568,f7,positive).
example(e568,f8,positive).
example(e568,f9,negative).
example(e568,f10,negative).
example(e568,f11,negative).
example(e568,f12,negative).
example(e568,f13,negative).
example(e568,f14,negative).
example(e568,f15,negative).
example(e568,f16,negative).
example(e568,f17,negative).
example(e568,f18,negative).
example(e568,f19,negative).
example(e568,f20,negative).
example(e568,f21,negative).
example(e568,f22,positive).
example(e568,f23,negative).
example(e568,f24,negative).
example(e568,f25,negative).
example(e568,f26,positive).
example(e568,f27,negative).
example(e568,f28,negative).
example(e568,f29,negative).
example(e568,f30,positive).
example(e568,f31,negative).
example(e568,f32,positive).
example(e568,f33,positive).
example(e568,f34,negative).
example(e569,f1,negative).
example(e569,f2,negative).
example(e569,f3,negative).
example(e569,f4,positive).
example(e569,f5,negative).
example(e569,f6,positive).
example(e569,f7,negative).
example(e569,f8,positive).
example(e569,f9,negative).
example(e569,f10,negative).
example(e569,f11,negative).
example(e569,f12,negative).
example(e569,f13,negative).
example(e569,f14,negative).
example(e569,f15,negative).
example(e569,f16,negative).
example(e569,f17,positive).
example(e569,f18,negative).
example(e569,f19,negative).
example(e569,f20,negative).
example(e569,f21,negative).
example(e569,f22,negative).
example(e569,f23,negative).
example(e569,f24,negative).
example(e569,f25,negative).
example(e569,f26,negative).
example(e569,f27,negative).
example(e569,f28,positive).
example(e569,f29,negative).
example(e569,f30,negative).
example(e569,f31,negative).
example(e569,f32,positive).
example(e569,f33,negative).
example(e569,f34,negative).
example(e570,f1,negative).
example(e570,f2,negative).
example(e570,f3,negative).
example(e570,f4,positive).
example(e570,f5,negative).
example(e570,f6,positive).
example(e570,f7,positive).
example(e570,f8,negative).
example(e570,f9,negative).
example(e570,f10,negative).
example(e570,f11,negative).
example(e570,f12,negative).
example(e570,f13,negative).
example(e570,f14,negative).
example(e570,f15,negative).
example(e570,f16,negative).
example(e570,f17,negative).
example(e570,f18,negative).
example(e570,f19,negative).
example(e570,f20,positive).
example(e570,f21,negative).
example(e570,f22,negative).
example(e570,f23,negative).
example(e570,f24,negative).
example(e570,f25,positive).
example(e570,f26,negative).
example(e570,f27,negative).
example(e570,f28,negative).
example(e570,f29,negative).
example(e570,f30,negative).
example(e570,f31,negative).
example(e570,f32,positive).
example(e570,f33,negative).
example(e570,f34,negative).
example(e571,f1,negative).
example(e571,f2,negative).
example(e571,f3,negative).
example(e571,f4,positive).
example(e571,f5,negative).
example(e571,f6,negative).
example(e571,f7,positive).
example(e571,f8,positive).
example(e571,f9,negative).
example(e571,f10,negative).
example(e571,f11,positive).
example(e571,f12,negative).
example(e571,f13,negative).
example(e571,f14,negative).
example(e571,f15,negative).
example(e571,f16,negative).
example(e571,f17,negative).
example(e571,f18,negative).
example(e571,f19,negative).
example(e571,f20,negative).
example(e571,f21,negative).
example(e571,f22,negative).
example(e571,f23,negative).
example(e571,f24,negative).
example(e571,f25,negative).
example(e571,f26,negative).
example(e571,f27,negative).
example(e571,f28,positive).
example(e571,f29,negative).
example(e571,f30,negative).
example(e571,f31,negative).
example(e571,f32,positive).
example(e571,f33,positive).
example(e571,f34,negative).
example(e572,f1,negative).
example(e572,f2,negative).
example(e572,f3,negative).
example(e572,f4,negative).
example(e572,f5,negative).
example(e572,f6,negative).
example(e572,f7,positive).
example(e572,f8,positive).
example(e572,f9,negative).
example(e572,f10,negative).
example(e572,f11,negative).
example(e572,f12,negative).
example(e572,f13,negative).
example(e572,f14,negative).
example(e572,f15,negative).
example(e572,f16,negative).
example(e572,f17,negative).
example(e572,f18,negative).
example(e572,f19,negative).
example(e572,f20,positive).
example(e572,f21,negative).
example(e572,f22,negative).
example(e572,f23,negative).
example(e572,f24,negative).
example(e572,f25,positive).
example(e572,f26,negative).
example(e572,f27,negative).
example(e572,f28,negative).
example(e572,f29,negative).
example(e572,f30,negative).
example(e572,f31,positive).
example(e572,f32,negative).
example(e572,f33,positive).
example(e572,f34,negative).
example(e573,f1,negative).
example(e573,f2,negative).
example(e573,f3,negative).
example(e573,f4,positive).
example(e573,f5,positive).
example(e573,f6,negative).
example(e573,f7,negative).
example(e573,f8,positive).
example(e573,f9,negative).
example(e573,f10,negative).
example(e573,f11,negative).
example(e573,f12,negative).
example(e573,f13,negative).
example(e573,f14,negative).
example(e573,f15,negative).
example(e573,f16,positive).
example(e573,f17,negative).
example(e573,f18,negative).
example(e573,f19,negative).
example(e573,f20,negative).
example(e573,f21,negative).
example(e573,f22,negative).
example(e573,f23,negative).
example(e573,f24,negative).
example(e573,f25,negative).
example(e573,f26,positive).
example(e573,f27,negative).
example(e573,f28,negative).
example(e573,f29,negative).
example(e573,f30,positive).
example(e573,f31,negative).
example(e573,f32,positive).
example(e573,f33,positive).
example(e573,f34,negative).
example(e574,f1,negative).
example(e574,f2,negative).
example(e574,f3,negative).
example(e574,f4,positive).
example(e574,f5,negative).
example(e574,f6,positive).
example(e574,f7,negative).
example(e574,f8,positive).
example(e574,f9,negative).
example(e574,f10,negative).
example(e574,f11,negative).
example(e574,f12,negative).
example(e574,f13,negative).
example(e574,f14,negative).
example(e574,f15,negative).
example(e574,f16,negative).
example(e574,f17,negative).
example(e574,f18,negative).
example(e574,f19,negative).
example(e574,f20,negative).
example(e574,f21,negative).
example(e574,f22,positive).
example(e574,f23,negative).
example(e574,f24,negative).
example(e574,f25,positive).
example(e574,f26,negative).
example(e574,f27,negative).
example(e574,f28,negative).
example(e574,f29,negative).
example(e574,f30,negative).
example(e574,f31,negative).
example(e574,f32,positive).
example(e574,f33,positive).
example(e574,f34,negative).
example(e575,f1,negative).
example(e575,f2,negative).
example(e575,f3,negative).
example(e575,f4,negative).
example(e575,f5,negative).
example(e575,f6,negative).
example(e575,f7,positive).
example(e575,f8,positive).
example(e575,f9,negative).
example(e575,f10,negative).
example(e575,f11,negative).
example(e575,f12,negative).
example(e575,f13,negative).
example(e575,f14,positive).
example(e575,f15,negative).
example(e575,f16,negative).
example(e575,f17,negative).
example(e575,f18,negative).
example(e575,f19,negative).
example(e575,f20,negative).
example(e575,f21,negative).
example(e575,f22,negative).
example(e575,f23,negative).
example(e575,f24,negative).
example(e575,f25,positive).
example(e575,f26,negative).
example(e575,f27,negative).
example(e575,f28,negative).
example(e575,f29,negative).
example(e575,f30,positive).
example(e575,f31,positive).
example(e575,f32,positive).
example(e575,f33,positive).
example(e575,f34,negative).
example(e576,f1,negative).
example(e576,f2,negative).
example(e576,f3,negative).
example(e576,f4,negative).
example(e576,f5,positive).
example(e576,f6,negative).
example(e576,f7,negative).
example(e576,f8,positive).
example(e576,f9,negative).
example(e576,f10,negative).
example(e576,f11,negative).
example(e576,f12,negative).
example(e576,f13,negative).
example(e576,f14,positive).
example(e576,f15,negative).
example(e576,f16,negative).
example(e576,f17,negative).
example(e576,f18,negative).
example(e576,f19,negative).
example(e576,f20,negative).
example(e576,f21,negative).
example(e576,f22,negative).
example(e576,f23,negative).
example(e576,f24,negative).
example(e576,f25,negative).
example(e576,f26,negative).
example(e576,f27,negative).
example(e576,f28,positive).
example(e576,f29,negative).
example(e576,f30,positive).
example(e576,f31,positive).
example(e576,f32,negative).
example(e576,f33,positive).
example(e576,f34,negative).
example(e577,f1,negative).
example(e577,f2,negative).
example(e577,f3,negative).
example(e577,f4,positive).
example(e577,f5,negative).
example(e577,f6,negative).
example(e577,f7,negative).
example(e577,f8,negative).
example(e577,f9,negative).
example(e577,f10,negative).
example(e577,f11,negative).
example(e577,f12,negative).
example(e577,f13,positive).
example(e577,f14,negative).
example(e577,f15,negative).
example(e577,f16,negative).
example(e577,f17,negative).
example(e577,f18,negative).
example(e577,f19,negative).
example(e577,f20,negative).
example(e577,f21,negative).
example(e577,f22,negative).
example(e577,f23,negative).
example(e577,f24,negative).
example(e577,f25,positive).
example(e577,f26,negative).
example(e577,f27,negative).
example(e577,f28,negative).
example(e577,f29,negative).
example(e577,f30,negative).
example(e577,f31,negative).
example(e577,f32,positive).
example(e577,f33,positive).
example(e577,f34,negative).
example(e578,f1,negative).
example(e578,f2,negative).
example(e578,f3,negative).
example(e578,f4,positive).
example(e578,f5,positive).
example(e578,f6,positive).
example(e578,f7,negative).
example(e578,f8,positive).
example(e578,f9,negative).
example(e578,f10,negative).
example(e578,f11,negative).
example(e578,f12,negative).
example(e578,f13,negative).
example(e578,f14,negative).
example(e578,f15,negative).
example(e578,f16,negative).
example(e578,f17,negative).
example(e578,f18,negative).
example(e578,f19,positive).
example(e578,f20,negative).
example(e578,f21,negative).
example(e578,f22,negative).
example(e578,f23,negative).
example(e578,f24,negative).
example(e578,f25,negative).
example(e578,f26,negative).
example(e578,f27,negative).
example(e578,f28,positive).
example(e578,f29,negative).
example(e578,f30,negative).
example(e578,f31,negative).
example(e578,f32,negative).
example(e578,f33,positive).
example(e578,f34,negative).
example(e579,f1,negative).
example(e579,f2,negative).
example(e579,f3,negative).
example(e579,f4,negative).
example(e579,f5,negative).
example(e579,f6,positive).
example(e579,f7,negative).
example(e579,f8,positive).
example(e579,f9,negative).
example(e579,f10,negative).
example(e579,f11,positive).
example(e579,f12,negative).
example(e579,f13,negative).
example(e579,f14,negative).
example(e579,f15,negative).
example(e579,f16,negative).
example(e579,f17,negative).
example(e579,f18,negative).
example(e579,f19,negative).
example(e579,f20,negative).
example(e579,f21,negative).
example(e579,f22,negative).
example(e579,f23,negative).
example(e579,f24,negative).
example(e579,f25,positive).
example(e579,f26,negative).
example(e579,f27,negative).
example(e579,f28,negative).
example(e579,f29,negative).
example(e579,f30,positive).
example(e579,f31,positive).
example(e579,f32,negative).
example(e579,f33,positive).
example(e579,f34,negative).
example(e580,f1,negative).
example(e580,f2,negative).
example(e580,f3,positive).
example(e580,f4,positive).
example(e580,f5,negative).
example(e580,f6,positive).
example(e580,f7,positive).
example(e580,f8,positive).
example(e580,f9,negative).
example(e580,f10,negative).
example(e580,f11,negative).
example(e580,f12,negative).
example(e580,f13,negative).
example(e580,f14,negative).
example(e580,f15,negative).
example(e580,f16,positive).
example(e580,f17,negative).
example(e580,f18,negative).
example(e580,f19,negative).
example(e580,f20,negative).
example(e580,f21,negative).
example(e580,f22,negative).
example(e580,f23,negative).
example(e580,f24,negative).
example(e580,f25,negative).
example(e580,f26,positive).
example(e580,f27,negative).
example(e580,f28,negative).
example(e580,f29,negative).
example(e580,f30,negative).
example(e580,f31,negative).
example(e580,f32,negative).
example(e580,f33,negative).
example(e580,f34,negative).
example(e581,f1,negative).
example(e581,f2,negative).
example(e581,f3,negative).
example(e581,f4,positive).
example(e581,f5,negative).
example(e581,f6,negative).
example(e581,f7,positive).
example(e581,f8,negative).
example(e581,f9,negative).
example(e581,f10,negative).
example(e581,f11,negative).
example(e581,f12,negative).
example(e581,f13,positive).
example(e581,f14,negative).
example(e581,f15,negative).
example(e581,f16,negative).
example(e581,f17,negative).
example(e581,f18,negative).
example(e581,f19,negative).
example(e581,f20,negative).
example(e581,f21,negative).
example(e581,f22,negative).
example(e581,f23,negative).
example(e581,f24,negative).
example(e581,f25,negative).
example(e581,f26,negative).
example(e581,f27,negative).
example(e581,f28,positive).
example(e581,f29,negative).
example(e581,f30,negative).
example(e581,f31,negative).
example(e581,f32,negative).
example(e581,f33,positive).
example(e581,f34,negative).
example(e582,f1,negative).
example(e582,f2,negative).
example(e582,f3,negative).
example(e582,f4,positive).
example(e582,f5,negative).
example(e582,f6,negative).
example(e582,f7,positive).
example(e582,f8,positive).
example(e582,f9,negative).
example(e582,f10,negative).
example(e582,f11,negative).
example(e582,f12,negative).
example(e582,f13,negative).
example(e582,f14,negative).
example(e582,f15,negative).
example(e582,f16,negative).
example(e582,f17,positive).
example(e582,f18,negative).
example(e582,f19,negative).
example(e582,f20,negative).
example(e582,f21,negative).
example(e582,f22,negative).
example(e582,f23,negative).
example(e582,f24,negative).
example(e582,f25,negative).
example(e582,f26,negative).
example(e582,f27,negative).
example(e582,f28,positive).
example(e582,f29,negative).
example(e582,f30,positive).
example(e582,f31,negative).
example(e582,f32,positive).
example(e582,f33,positive).
example(e582,f34,negative).
example(e583,f1,negative).
example(e583,f2,negative).
example(e583,f3,negative).
example(e583,f4,negative).
example(e583,f5,negative).
example(e583,f6,positive).
example(e583,f7,negative).
example(e583,f8,negative).
example(e583,f9,negative).
example(e583,f10,negative).
example(e583,f11,negative).
example(e583,f12,negative).
example(e583,f13,negative).
example(e583,f14,positive).
example(e583,f15,negative).
example(e583,f16,negative).
example(e583,f17,negative).
example(e583,f18,negative).
example(e583,f19,negative).
example(e583,f20,negative).
example(e583,f21,negative).
example(e583,f22,negative).
example(e583,f23,negative).
example(e583,f24,negative).
example(e583,f25,negative).
example(e583,f26,negative).
example(e583,f27,negative).
example(e583,f28,positive).
example(e583,f29,negative).
example(e583,f30,positive).
example(e583,f31,positive).
example(e583,f32,negative).
example(e583,f33,positive).
example(e583,f34,negative).
example(e584,f1,negative).
example(e584,f2,negative).
example(e584,f3,negative).
example(e584,f4,positive).
example(e584,f5,negative).
example(e584,f6,positive).
example(e584,f7,positive).
example(e584,f8,positive).
example(e584,f9,negative).
example(e584,f10,negative).
example(e584,f11,negative).
example(e584,f12,negative).
example(e584,f13,negative).
example(e584,f14,negative).
example(e584,f15,negative).
example(e584,f16,negative).
example(e584,f17,negative).
example(e584,f18,negative).
example(e584,f19,negative).
example(e584,f20,positive).
example(e584,f21,negative).
example(e584,f22,negative).
example(e584,f23,negative).
example(e584,f24,negative).
example(e584,f25,positive).
example(e584,f26,negative).
example(e584,f27,negative).
example(e584,f28,negative).
example(e584,f29,negative).
example(e584,f30,positive).
example(e584,f31,negative).
example(e584,f32,positive).
example(e584,f33,positive).
example(e584,f34,negative).
example(e585,f1,negative).
example(e585,f2,negative).
example(e585,f3,negative).
example(e585,f4,positive).
example(e585,f5,negative).
example(e585,f6,negative).
example(e585,f7,positive).
example(e585,f8,negative).
example(e585,f9,negative).
example(e585,f10,negative).
example(e585,f11,negative).
example(e585,f12,negative).
example(e585,f13,negative).
example(e585,f14,negative).
example(e585,f15,negative).
example(e585,f16,negative).
example(e585,f17,negative).
example(e585,f18,negative).
example(e585,f19,negative).
example(e585,f20,negative).
example(e585,f21,positive).
example(e585,f22,negative).
example(e585,f23,negative).
example(e585,f24,negative).
example(e585,f25,negative).
example(e585,f26,negative).
example(e585,f27,negative).
example(e585,f28,positive).
example(e585,f29,negative).
example(e585,f30,negative).
example(e585,f31,negative).
example(e585,f32,negative).
example(e585,f33,positive).
example(e585,f34,negative).
example(e586,f1,negative).
example(e586,f2,negative).
example(e586,f3,negative).
example(e586,f4,negative).
example(e586,f5,positive).
example(e586,f6,negative).
example(e586,f7,positive).
example(e586,f8,positive).
example(e586,f9,negative).
example(e586,f10,negative).
example(e586,f11,negative).
example(e586,f12,negative).
example(e586,f13,negative).
example(e586,f14,negative).
example(e586,f15,negative).
example(e586,f16,negative).
example(e586,f17,negative).
example(e586,f18,negative).
example(e586,f19,negative).
example(e586,f20,negative).
example(e586,f21,positive).
example(e586,f22,negative).
example(e586,f23,negative).
example(e586,f24,negative).
example(e586,f25,positive).
example(e586,f26,negative).
example(e586,f27,negative).
example(e586,f28,negative).
example(e586,f29,negative).
example(e586,f30,positive).
example(e586,f31,positive).
example(e586,f32,positive).
example(e586,f33,positive).
example(e586,f34,negative).
example(e587,f1,negative).
example(e587,f2,negative).
example(e587,f3,negative).
example(e587,f4,negative).
example(e587,f5,negative).
example(e587,f6,negative).
example(e587,f7,positive).
example(e587,f8,positive).
example(e587,f9,negative).
example(e587,f10,negative).
example(e587,f11,positive).
example(e587,f12,negative).
example(e587,f13,negative).
example(e587,f14,negative).
example(e587,f15,negative).
example(e587,f16,negative).
example(e587,f17,negative).
example(e587,f18,negative).
example(e587,f19,negative).
example(e587,f20,negative).
example(e587,f21,negative).
example(e587,f22,negative).
example(e587,f23,negative).
example(e587,f24,negative).
example(e587,f25,negative).
example(e587,f26,negative).
example(e587,f27,negative).
example(e587,f28,positive).
example(e587,f29,negative).
example(e587,f30,positive).
example(e587,f31,positive).
example(e587,f32,negative).
example(e587,f33,positive).
example(e587,f34,negative).
example(e588,f1,negative).
example(e588,f2,negative).
example(e588,f3,negative).
example(e588,f4,positive).
example(e588,f5,positive).
example(e588,f6,positive).
example(e588,f7,negative).
example(e588,f8,positive).
example(e588,f9,negative).
example(e588,f10,negative).
example(e588,f11,negative).
example(e588,f12,negative).
example(e588,f13,negative).
example(e588,f14,negative).
example(e588,f15,negative).
example(e588,f16,negative).
example(e588,f17,positive).
example(e588,f18,negative).
example(e588,f19,negative).
example(e588,f20,negative).
example(e588,f21,negative).
example(e588,f22,negative).
example(e588,f23,negative).
example(e588,f24,negative).
example(e588,f25,positive).
example(e588,f26,negative).
example(e588,f27,negative).
example(e588,f28,negative).
example(e588,f29,negative).
example(e588,f30,positive).
example(e588,f31,negative).
example(e588,f32,positive).
example(e588,f33,positive).
example(e588,f34,negative).
example(e589,f1,negative).
example(e589,f2,negative).
example(e589,f3,negative).
example(e589,f4,positive).
example(e589,f5,negative).
example(e589,f6,negative).
example(e589,f7,positive).
example(e589,f8,positive).
example(e589,f9,negative).
example(e589,f10,negative).
example(e589,f11,negative).
example(e589,f12,negative).
example(e589,f13,negative).
example(e589,f14,negative).
example(e589,f15,negative).
example(e589,f16,negative).
example(e589,f17,negative).
example(e589,f18,negative).
example(e589,f19,negative).
example(e589,f20,negative).
example(e589,f21,negative).
example(e589,f22,positive).
example(e589,f23,negative).
example(e589,f24,negative).
example(e589,f25,positive).
example(e589,f26,negative).
example(e589,f27,negative).
example(e589,f28,negative).
example(e589,f29,negative).
example(e589,f30,positive).
example(e589,f31,negative).
example(e589,f32,positive).
example(e589,f33,positive).
example(e589,f34,negative).
example(e590,f1,negative).
example(e590,f2,negative).
example(e590,f3,negative).
example(e590,f4,positive).
example(e590,f5,negative).
example(e590,f6,negative).
example(e590,f7,positive).
example(e590,f8,negative).
example(e590,f9,negative).
example(e590,f10,negative).
example(e590,f11,negative).
example(e590,f12,negative).
example(e590,f13,negative).
example(e590,f14,positive).
example(e590,f15,negative).
example(e590,f16,negative).
example(e590,f17,negative).
example(e590,f18,negative).
example(e590,f19,negative).
example(e590,f20,negative).
example(e590,f21,negative).
example(e590,f22,negative).
example(e590,f23,negative).
example(e590,f24,negative).
example(e590,f25,negative).
example(e590,f26,negative).
example(e590,f27,negative).
example(e590,f28,positive).
example(e590,f29,negative).
example(e590,f30,negative).
example(e590,f31,negative).
example(e590,f32,negative).
example(e590,f33,positive).
example(e590,f34,negative).
example(e591,f1,negative).
example(e591,f2,negative).
example(e591,f3,negative).
example(e591,f4,positive).
example(e591,f5,positive).
example(e591,f6,negative).
example(e591,f7,positive).
example(e591,f8,positive).
example(e591,f9,negative).
example(e591,f10,negative).
example(e591,f11,negative).
example(e591,f12,negative).
example(e591,f13,positive).
example(e591,f14,negative).
example(e591,f15,negative).
example(e591,f16,negative).
example(e591,f17,negative).
example(e591,f18,negative).
example(e591,f19,negative).
example(e591,f20,negative).
example(e591,f21,negative).
example(e591,f22,negative).
example(e591,f23,negative).
example(e591,f24,negative).
example(e591,f25,positive).
example(e591,f26,negative).
example(e591,f27,negative).
example(e591,f28,negative).
example(e591,f29,negative).
example(e591,f30,negative).
example(e591,f31,negative).
example(e591,f32,positive).
example(e591,f33,positive).
example(e591,f34,negative).
example(e592,f1,negative).
example(e592,f2,negative).
example(e592,f3,negative).
example(e592,f4,negative).
example(e592,f5,positive).
example(e592,f6,negative).
example(e592,f7,positive).
example(e592,f8,positive).
example(e592,f9,negative).
example(e592,f10,negative).
example(e592,f11,negative).
example(e592,f12,negative).
example(e592,f13,negative).
example(e592,f14,negative).
example(e592,f15,negative).
example(e592,f16,negative).
example(e592,f17,negative).
example(e592,f18,negative).
example(e592,f19,negative).
example(e592,f20,negative).
example(e592,f21,positive).
example(e592,f22,negative).
example(e592,f23,negative).
example(e592,f24,negative).
example(e592,f25,positive).
example(e592,f26,negative).
example(e592,f27,negative).
example(e592,f28,negative).
example(e592,f29,negative).
example(e592,f30,positive).
example(e592,f31,positive).
example(e592,f32,negative).
example(e592,f33,positive).
example(e592,f34,negative).
example(e593,f1,negative).
example(e593,f2,negative).
example(e593,f3,positive).
example(e593,f4,positive).
example(e593,f5,positive).
example(e593,f6,negative).
example(e593,f7,positive).
example(e593,f8,positive).
example(e593,f9,negative).
example(e593,f10,negative).
example(e593,f11,negative).
example(e593,f12,negative).
example(e593,f13,negative).
example(e593,f14,negative).
example(e593,f15,negative).
example(e593,f16,negative).
example(e593,f17,negative).
example(e593,f18,negative).
example(e593,f19,negative).
example(e593,f20,negative).
example(e593,f21,negative).
example(e593,f22,negative).
example(e593,f23,negative).
example(e593,f24,negative).
example(e593,f25,negative).
example(e593,f26,negative).
example(e593,f27,negative).
example(e593,f28,negative).
example(e593,f29,negative).
example(e593,f30,negative).
example(e593,f31,negative).
example(e593,f32,negative).
example(e593,f33,positive).
example(e593,f34,negative).
example(e594,f1,negative).
example(e594,f2,negative).
example(e594,f3,negative).
example(e594,f4,negative).
example(e594,f5,negative).
example(e594,f6,negative).
example(e594,f7,positive).
example(e594,f8,positive).
example(e594,f9,negative).
example(e594,f10,negative).
example(e594,f11,negative).
example(e594,f12,negative).
example(e594,f13,negative).
example(e594,f14,negative).
example(e594,f15,negative).
example(e594,f16,negative).
example(e594,f17,negative).
example(e594,f18,negative).
example(e594,f19,negative).
example(e594,f20,negative).
example(e594,f21,positive).
example(e594,f22,negative).
example(e594,f23,negative).
example(e594,f24,negative).
example(e594,f25,positive).
example(e594,f26,negative).
example(e594,f27,negative).
example(e594,f28,negative).
example(e594,f29,negative).
example(e594,f30,positive).
example(e594,f31,positive).
example(e594,f32,positive).
example(e594,f33,positive).
example(e594,f34,negative).
example(e595,f1,negative).
example(e595,f2,negative).
example(e595,f3,negative).
example(e595,f4,positive).
example(e595,f5,negative).
example(e595,f6,negative).
example(e595,f7,positive).
example(e595,f8,positive).
example(e595,f9,negative).
example(e595,f10,negative).
example(e595,f11,negative).
example(e595,f12,negative).
example(e595,f13,negative).
example(e595,f14,negative).
example(e595,f15,negative).
example(e595,f16,negative).
example(e595,f17,negative).
example(e595,f18,negative).
example(e595,f19,negative).
example(e595,f20,negative).
example(e595,f21,negative).
example(e595,f22,positive).
example(e595,f23,negative).
example(e595,f24,negative).
example(e595,f25,positive).
example(e595,f26,negative).
example(e595,f27,negative).
example(e595,f28,negative).
example(e595,f29,negative).
example(e595,f30,negative).
example(e595,f31,negative).
example(e595,f32,negative).
example(e595,f33,positive).
example(e595,f34,negative).
example(e596,f1,negative).
example(e596,f2,negative).
example(e596,f3,negative).
example(e596,f4,positive).
example(e596,f5,negative).
example(e596,f6,positive).
example(e596,f7,positive).
example(e596,f8,negative).
example(e596,f9,negative).
example(e596,f10,negative).
example(e596,f11,negative).
example(e596,f12,negative).
example(e596,f13,negative).
example(e596,f14,negative).
example(e596,f15,negative).
example(e596,f16,positive).
example(e596,f17,negative).
example(e596,f18,negative).
example(e596,f19,negative).
example(e596,f20,negative).
example(e596,f21,negative).
example(e596,f22,negative).
example(e596,f23,negative).
example(e596,f24,negative).
example(e596,f25,negative).
example(e596,f26,positive).
example(e596,f27,negative).
example(e596,f28,negative).
example(e596,f29,negative).
example(e596,f30,negative).
example(e596,f31,negative).
example(e596,f32,positive).
example(e596,f33,positive).
example(e596,f34,negative).
example(e597,f1,negative).
example(e597,f2,negative).
example(e597,f3,negative).
example(e597,f4,positive).
example(e597,f5,negative).
example(e597,f6,positive).
example(e597,f7,positive).
example(e597,f8,negative).
example(e597,f9,negative).
example(e597,f10,negative).
example(e597,f11,negative).
example(e597,f12,negative).
example(e597,f13,negative).
example(e597,f14,negative).
example(e597,f15,negative).
example(e597,f16,negative).
example(e597,f17,negative).
example(e597,f18,negative).
example(e597,f19,negative).
example(e597,f20,negative).
example(e597,f21,positive).
example(e597,f22,negative).
example(e597,f23,negative).
example(e597,f24,negative).
example(e597,f25,positive).
example(e597,f26,negative).
example(e597,f27,negative).
example(e597,f28,negative).
example(e597,f29,negative).
example(e597,f30,positive).
example(e597,f31,negative).
example(e597,f32,negative).
example(e597,f33,negative).
example(e597,f34,negative).
example(e598,f1,negative).
example(e598,f2,negative).
example(e598,f3,positive).
example(e598,f4,positive).
example(e598,f5,negative).
example(e598,f6,negative).
example(e598,f7,positive).
example(e598,f8,positive).
example(e598,f9,negative).
example(e598,f10,negative).
example(e598,f11,negative).
example(e598,f12,negative).
example(e598,f13,negative).
example(e598,f14,negative).
example(e598,f15,negative).
example(e598,f16,negative).
example(e598,f17,negative).
example(e598,f18,negative).
example(e598,f19,negative).
example(e598,f20,negative).
example(e598,f21,negative).
example(e598,f22,positive).
example(e598,f23,negative).
example(e598,f24,negative).
example(e598,f25,positive).
example(e598,f26,negative).
example(e598,f27,negative).
example(e598,f28,negative).
example(e598,f29,negative).
example(e598,f30,positive).
example(e598,f31,negative).
example(e598,f32,positive).
example(e598,f33,positive).
example(e598,f34,negative).
example(e599,f1,negative).
example(e599,f2,negative).
example(e599,f3,negative).
example(e599,f4,negative).
example(e599,f5,negative).
example(e599,f6,negative).
example(e599,f7,positive).
example(e599,f8,positive).
example(e599,f9,negative).
example(e599,f10,negative).
example(e599,f11,negative).
example(e599,f12,negative).
example(e599,f13,negative).
example(e599,f14,negative).
example(e599,f15,negative).
example(e599,f16,negative).
example(e599,f17,negative).
example(e599,f18,negative).
example(e599,f19,negative).
example(e599,f20,positive).
example(e599,f21,negative).
example(e599,f22,negative).
example(e599,f23,negative).
example(e599,f24,negative).
example(e599,f25,positive).
example(e599,f26,negative).
example(e599,f27,negative).
example(e599,f28,negative).
example(e599,f29,negative).
example(e599,f30,negative).
example(e599,f31,positive).
example(e599,f32,negative).
example(e599,f33,positive).
example(e599,f34,negative).
example(e600,f1,negative).
example(e600,f2,negative).
example(e600,f3,negative).
example(e600,f4,negative).
example(e600,f5,negative).
example(e600,f6,positive).
example(e600,f7,positive).
example(e600,f8,positive).
example(e600,f9,negative).
example(e600,f10,negative).
example(e600,f11,negative).
example(e600,f12,negative).
example(e600,f13,negative).
example(e600,f14,negative).
example(e600,f15,negative).
example(e600,f16,negative).
example(e600,f17,negative).
example(e600,f18,negative).
example(e600,f19,negative).
example(e600,f20,positive).
example(e600,f21,negative).
example(e600,f22,negative).
example(e600,f23,negative).
example(e600,f24,negative).
example(e600,f25,negative).
example(e600,f26,negative).
example(e600,f27,negative).
example(e600,f28,positive).
example(e600,f29,negative).
example(e600,f30,positive).
example(e600,f31,positive).
example(e600,f32,positive).
example(e600,f33,positive).
example(e600,f34,negative).
example(e601,f1,negative).
example(e601,f2,negative).
example(e601,f3,negative).
example(e601,f4,positive).
example(e601,f5,negative).
example(e601,f6,negative).
example(e601,f7,negative).
example(e601,f8,positive).
example(e601,f9,negative).
example(e601,f10,negative).
example(e601,f11,negative).
example(e601,f12,negative).
example(e601,f13,negative).
example(e601,f14,negative).
example(e601,f15,negative).
example(e601,f16,positive).
example(e601,f17,negative).
example(e601,f18,negative).
example(e601,f19,negative).
example(e601,f20,negative).
example(e601,f21,negative).
example(e601,f22,negative).
example(e601,f23,negative).
example(e601,f24,negative).
example(e601,f25,positive).
example(e601,f26,negative).
example(e601,f27,negative).
example(e601,f28,negative).
example(e601,f29,negative).
example(e601,f30,negative).
example(e601,f31,negative).
example(e601,f32,negative).
example(e601,f33,positive).
example(e601,f34,negative).
example(e602,f1,negative).
example(e602,f2,negative).
example(e602,f3,negative).
example(e602,f4,positive).
example(e602,f5,negative).
example(e602,f6,negative).
example(e602,f7,positive).
example(e602,f8,positive).
example(e602,f9,negative).
example(e602,f10,negative).
example(e602,f11,positive).
example(e602,f12,negative).
example(e602,f13,negative).
example(e602,f14,negative).
example(e602,f15,negative).
example(e602,f16,negative).
example(e602,f17,negative).
example(e602,f18,negative).
example(e602,f19,negative).
example(e602,f20,negative).
example(e602,f21,negative).
example(e602,f22,negative).
example(e602,f23,negative).
example(e602,f24,negative).
example(e602,f25,negative).
example(e602,f26,negative).
example(e602,f27,negative).
example(e602,f28,positive).
example(e602,f29,negative).
example(e602,f30,positive).
example(e602,f31,negative).
example(e602,f32,positive).
example(e602,f33,positive).
example(e602,f34,negative).
example(e603,f1,negative).
example(e603,f2,negative).
example(e603,f3,negative).
example(e603,f4,negative).
example(e603,f5,negative).
example(e603,f6,negative).
example(e603,f7,positive).
example(e603,f8,positive).
example(e603,f9,negative).
example(e603,f10,negative).
example(e603,f11,negative).
example(e603,f12,negative).
example(e603,f13,negative).
example(e603,f14,positive).
example(e603,f15,negative).
example(e603,f16,negative).
example(e603,f17,negative).
example(e603,f18,negative).
example(e603,f19,negative).
example(e603,f20,negative).
example(e603,f21,negative).
example(e603,f22,negative).
example(e603,f23,negative).
example(e603,f24,negative).
example(e603,f25,positive).
example(e603,f26,negative).
example(e603,f27,negative).
example(e603,f28,negative).
example(e603,f29,negative).
example(e603,f30,positive).
example(e603,f31,positive).
example(e603,f32,negative).
example(e603,f33,positive).
example(e603,f34,negative).
example(e604,f1,negative).
example(e604,f2,negative).
example(e604,f3,negative).
example(e604,f4,negative).
example(e604,f5,positive).
example(e604,f6,negative).
example(e604,f7,negative).
example(e604,f8,positive).
example(e604,f9,negative).
example(e604,f10,negative).
example(e604,f11,positive).
example(e604,f12,negative).
example(e604,f13,negative).
example(e604,f14,negative).
example(e604,f15,negative).
example(e604,f16,negative).
example(e604,f17,negative).
example(e604,f18,negative).
example(e604,f19,negative).
example(e604,f20,negative).
example(e604,f21,negative).
example(e604,f22,negative).
example(e604,f23,negative).
example(e604,f24,negative).
example(e604,f25,negative).
example(e604,f26,negative).
example(e604,f27,negative).
example(e604,f28,positive).
example(e604,f29,negative).
example(e604,f30,positive).
example(e604,f31,positive).
example(e604,f32,negative).
example(e604,f33,positive).
example(e604,f34,negative).
example(e605,f1,negative).
example(e605,f2,negative).
example(e605,f3,negative).
example(e605,f4,negative).
example(e605,f5,negative).
example(e605,f6,negative).
example(e605,f7,negative).
example(e605,f8,positive).
example(e605,f9,negative).
example(e605,f10,negative).
example(e605,f11,negative).
example(e605,f12,negative).
example(e605,f13,positive).
example(e605,f14,negative).
example(e605,f15,negative).
example(e605,f16,negative).
example(e605,f17,negative).
example(e605,f18,negative).
example(e605,f19,negative).
example(e605,f20,negative).
example(e605,f21,negative).
example(e605,f22,negative).
example(e605,f23,negative).
example(e605,f24,negative).
example(e605,f25,negative).
example(e605,f26,negative).
example(e605,f27,negative).
example(e605,f28,positive).
example(e605,f29,negative).
example(e605,f30,positive).
example(e605,f31,positive).
example(e605,f32,positive).
example(e605,f33,positive).
example(e605,f34,negative).
example(e606,f1,negative).
example(e606,f2,positive).
example(e606,f3,positive).
example(e606,f4,positive).
example(e606,f5,positive).
example(e606,f6,positive).
example(e606,f7,negative).
example(e606,f8,negative).
example(e606,f9,negative).
example(e606,f10,negative).
example(e606,f11,negative).
example(e606,f12,negative).
example(e606,f13,negative).
example(e606,f14,negative).
example(e606,f15,negative).
example(e606,f16,negative).
example(e606,f17,negative).
example(e606,f18,negative).
example(e606,f19,negative).
example(e606,f20,negative).
example(e606,f21,negative).
example(e606,f22,negative).
example(e606,f23,negative).
example(e606,f24,negative).
example(e606,f25,negative).
example(e606,f26,negative).
example(e606,f27,negative).
example(e606,f28,negative).
example(e606,f29,negative).
example(e606,f30,negative).
example(e606,f31,negative).
example(e606,f32,negative).
example(e606,f33,positive).
example(e606,f34,negative).
example(e607,f1,negative).
example(e607,f2,negative).
example(e607,f3,negative).
example(e607,f4,positive).
example(e607,f5,negative).
example(e607,f6,positive).
example(e607,f7,positive).
example(e607,f8,negative).
example(e607,f9,negative).
example(e607,f10,negative).
example(e607,f11,negative).
example(e607,f12,negative).
example(e607,f13,negative).
example(e607,f14,negative).
example(e607,f15,negative).
example(e607,f16,positive).
example(e607,f17,negative).
example(e607,f18,negative).
example(e607,f19,negative).
example(e607,f20,negative).
example(e607,f21,negative).
example(e607,f22,negative).
example(e607,f23,negative).
example(e607,f24,negative).
example(e607,f25,negative).
example(e607,f26,negative).
example(e607,f27,negative).
example(e607,f28,positive).
example(e607,f29,negative).
example(e607,f30,negative).
example(e607,f31,negative).
example(e607,f32,positive).
example(e607,f33,negative).
example(e607,f34,negative).
example(e608,f1,negative).
example(e608,f2,negative).
example(e608,f3,negative).
example(e608,f4,negative).
example(e608,f5,negative).
example(e608,f6,negative).
example(e608,f7,positive).
example(e608,f8,positive).
example(e608,f9,negative).
example(e608,f10,negative).
example(e608,f11,negative).
example(e608,f12,negative).
example(e608,f13,negative).
example(e608,f14,negative).
example(e608,f15,negative).
example(e608,f16,negative).
example(e608,f17,negative).
example(e608,f18,negative).
example(e608,f19,negative).
example(e608,f20,negative).
example(e608,f21,positive).
example(e608,f22,negative).
example(e608,f23,negative).
example(e608,f24,negative).
example(e608,f25,positive).
example(e608,f26,negative).
example(e608,f27,negative).
example(e608,f28,negative).
example(e608,f29,negative).
example(e608,f30,positive).
example(e608,f31,positive).
example(e608,f32,negative).
example(e608,f33,positive).
example(e608,f34,negative).
example(e609,f1,negative).
example(e609,f2,negative).
example(e609,f3,negative).
example(e609,f4,positive).
example(e609,f5,negative).
example(e609,f6,negative).
example(e609,f7,negative).
example(e609,f8,positive).
example(e609,f9,negative).
example(e609,f10,negative).
example(e609,f11,negative).
example(e609,f12,negative).
example(e609,f13,negative).
example(e609,f14,negative).
example(e609,f15,negative).
example(e609,f16,negative).
example(e609,f17,negative).
example(e609,f18,negative).
example(e609,f19,negative).
example(e609,f20,negative).
example(e609,f21,negative).
example(e609,f22,positive).
example(e609,f23,negative).
example(e609,f24,negative).
example(e609,f25,positive).
example(e609,f26,negative).
example(e609,f27,negative).
example(e609,f28,negative).
example(e609,f29,negative).
example(e609,f30,negative).
example(e609,f31,negative).
example(e609,f32,positive).
example(e609,f33,positive).
example(e609,f34,negative).
example(e610,f1,negative).
example(e610,f2,negative).
example(e610,f3,negative).
example(e610,f4,positive).
example(e610,f5,negative).
example(e610,f6,negative).
example(e610,f7,positive).
example(e610,f8,positive).
example(e610,f9,negative).
example(e610,f10,negative).
example(e610,f11,negative).
example(e610,f12,negative).
example(e610,f13,negative).
example(e610,f14,negative).
example(e610,f15,negative).
example(e610,f16,negative).
example(e610,f17,negative).
example(e610,f18,negative).
example(e610,f19,negative).
example(e610,f20,negative).
example(e610,f21,negative).
example(e610,f22,positive).
example(e610,f23,negative).
example(e610,f24,negative).
example(e610,f25,positive).
example(e610,f26,negative).
example(e610,f27,negative).
example(e610,f28,negative).
example(e610,f29,negative).
example(e610,f30,positive).
example(e610,f31,negative).
example(e610,f32,negative).
example(e610,f33,positive).
example(e610,f34,negative).
example(e611,f1,negative).
example(e611,f2,negative).
example(e611,f3,negative).
example(e611,f4,negative).
example(e611,f5,negative).
example(e611,f6,negative).
example(e611,f7,positive).
example(e611,f8,positive).
example(e611,f9,negative).
example(e611,f10,negative).
example(e611,f11,negative).
example(e611,f12,negative).
example(e611,f13,negative).
example(e611,f14,negative).
example(e611,f15,negative).
example(e611,f16,negative).
example(e611,f17,negative).
example(e611,f18,negative).
example(e611,f19,negative).
example(e611,f20,negative).
example(e611,f21,positive).
example(e611,f22,negative).
example(e611,f23,negative).
example(e611,f24,negative).
example(e611,f25,negative).
example(e611,f26,positive).
example(e611,f27,negative).
example(e611,f28,negative).
example(e611,f29,negative).
example(e611,f30,positive).
example(e611,f31,positive).
example(e611,f32,negative).
example(e611,f33,positive).
example(e611,f34,negative).
example(e612,f1,negative).
example(e612,f2,negative).
example(e612,f3,negative).
example(e612,f4,positive).
example(e612,f5,negative).
example(e612,f6,negative).
example(e612,f7,positive).
example(e612,f8,negative).
example(e612,f9,negative).
example(e612,f10,negative).
example(e612,f11,negative).
example(e612,f12,negative).
example(e612,f13,negative).
example(e612,f14,negative).
example(e612,f15,positive).
example(e612,f16,negative).
example(e612,f17,negative).
example(e612,f18,negative).
example(e612,f19,negative).
example(e612,f20,negative).
example(e612,f21,negative).
example(e612,f22,negative).
example(e612,f23,negative).
example(e612,f24,negative).
example(e612,f25,positive).
example(e612,f26,negative).
example(e612,f27,negative).
example(e612,f28,negative).
example(e612,f29,negative).
example(e612,f30,negative).
example(e612,f31,negative).
example(e612,f32,negative).
example(e612,f33,positive).
example(e612,f34,negative).
example(e613,f1,negative).
example(e613,f2,negative).
example(e613,f3,positive).
example(e613,f4,positive).
example(e613,f5,positive).
example(e613,f6,positive).
example(e613,f7,positive).
example(e613,f8,positive).
example(e613,f9,negative).
example(e613,f10,negative).
example(e613,f11,negative).
example(e613,f12,negative).
example(e613,f13,negative).
example(e613,f14,negative).
example(e613,f15,negative).
example(e613,f16,positive).
example(e613,f17,negative).
example(e613,f18,negative).
example(e613,f19,negative).
example(e613,f20,negative).
example(e613,f21,negative).
example(e613,f22,negative).
example(e613,f23,negative).
example(e613,f24,negative).
example(e613,f25,negative).
example(e613,f26,positive).
example(e613,f27,negative).
example(e613,f28,negative).
example(e613,f29,negative).
example(e613,f30,positive).
example(e613,f31,negative).
example(e613,f32,positive).
example(e613,f33,positive).
example(e613,f34,negative).
example(e614,f1,negative).
example(e614,f2,negative).
example(e614,f3,negative).
example(e614,f4,positive).
example(e614,f5,negative).
example(e614,f6,positive).
example(e614,f7,positive).
example(e614,f8,negative).
example(e614,f9,negative).
example(e614,f10,negative).
example(e614,f11,negative).
example(e614,f12,negative).
example(e614,f13,negative).
example(e614,f14,negative).
example(e614,f15,negative).
example(e614,f16,negative).
example(e614,f17,negative).
example(e614,f18,negative).
example(e614,f19,negative).
example(e614,f20,positive).
example(e614,f21,negative).
example(e614,f22,negative).
example(e614,f23,negative).
example(e614,f24,negative).
example(e614,f25,positive).
example(e614,f26,negative).
example(e614,f27,negative).
example(e614,f28,negative).
example(e614,f29,negative).
example(e614,f30,negative).
example(e614,f31,negative).
example(e614,f32,negative).
example(e614,f33,negative).
example(e614,f34,negative).
example(e615,f1,negative).
example(e615,f2,negative).
example(e615,f3,negative).
example(e615,f4,negative).
example(e615,f5,negative).
example(e615,f6,negative).
example(e615,f7,positive).
example(e615,f8,positive).
example(e615,f9,negative).
example(e615,f10,negative).
example(e615,f11,negative).
example(e615,f12,negative).
example(e615,f13,negative).
example(e615,f14,negative).
example(e615,f15,negative).
example(e615,f16,negative).
example(e615,f17,negative).
example(e615,f18,negative).
example(e615,f19,negative).
example(e615,f20,negative).
example(e615,f21,positive).
example(e615,f22,negative).
example(e615,f23,negative).
example(e615,f24,negative).
example(e615,f25,negative).
example(e615,f26,negative).
example(e615,f27,negative).
example(e615,f28,positive).
example(e615,f29,negative).
example(e615,f30,positive).
example(e615,f31,positive).
example(e615,f32,negative).
example(e615,f33,positive).
example(e615,f34,negative).
example(e616,f1,negative).
example(e616,f2,negative).
example(e616,f3,negative).
example(e616,f4,negative).
example(e616,f5,negative).
example(e616,f6,negative).
example(e616,f7,positive).
example(e616,f8,positive).
example(e616,f9,negative).
example(e616,f10,negative).
example(e616,f11,negative).
example(e616,f12,negative).
example(e616,f13,negative).
example(e616,f14,negative).
example(e616,f15,negative).
example(e616,f16,negative).
example(e616,f17,negative).
example(e616,f18,negative).
example(e616,f19,positive).
example(e616,f20,negative).
example(e616,f21,negative).
example(e616,f22,negative).
example(e616,f23,negative).
example(e616,f24,negative).
example(e616,f25,positive).
example(e616,f26,negative).
example(e616,f27,negative).
example(e616,f28,negative).
example(e616,f29,negative).
example(e616,f30,positive).
example(e616,f31,positive).
example(e616,f32,negative).
example(e616,f33,positive).
example(e616,f34,negative).
example(e617,f1,negative).
example(e617,f2,negative).
example(e617,f3,positive).
example(e617,f4,positive).
example(e617,f5,positive).
example(e617,f6,positive).
example(e617,f7,negative).
example(e617,f8,positive).
example(e617,f9,negative).
example(e617,f10,negative).
example(e617,f11,negative).
example(e617,f12,negative).
example(e617,f13,negative).
example(e617,f14,negative).
example(e617,f15,negative).
example(e617,f16,negative).
example(e617,f17,negative).
example(e617,f18,negative).
example(e617,f19,negative).
example(e617,f20,negative).
example(e617,f21,positive).
example(e617,f22,negative).
example(e617,f23,negative).
example(e617,f24,negative).
example(e617,f25,positive).
example(e617,f26,negative).
example(e617,f27,negative).
example(e617,f28,negative).
example(e617,f29,negative).
example(e617,f30,negative).
example(e617,f31,negative).
example(e617,f32,negative).
example(e617,f33,positive).
example(e617,f34,negative).
example(e618,f1,negative).
example(e618,f2,negative).
example(e618,f3,negative).
example(e618,f4,negative).
example(e618,f5,negative).
example(e618,f6,negative).
example(e618,f7,negative).
example(e618,f8,positive).
example(e618,f9,negative).
example(e618,f10,negative).
example(e618,f11,negative).
example(e618,f12,negative).
example(e618,f13,negative).
example(e618,f14,negative).
example(e618,f15,negative).
example(e618,f16,negative).
example(e618,f17,negative).
example(e618,f18,negative).
example(e618,f19,negative).
example(e618,f20,positive).
example(e618,f21,negative).
example(e618,f22,negative).
example(e618,f23,negative).
example(e618,f24,negative).
example(e618,f25,positive).
example(e618,f26,negative).
example(e618,f27,negative).
example(e618,f28,negative).
example(e618,f29,negative).
example(e618,f30,negative).
example(e618,f31,positive).
example(e618,f32,positive).
example(e618,f33,positive).
example(e618,f34,negative).
example(e619,f1,negative).
example(e619,f2,negative).
example(e619,f3,negative).
example(e619,f4,positive).
example(e619,f5,negative).
example(e619,f6,positive).
example(e619,f7,positive).
example(e619,f8,negative).
example(e619,f9,negative).
example(e619,f10,negative).
example(e619,f11,negative).
example(e619,f12,negative).
example(e619,f13,positive).
example(e619,f14,negative).
example(e619,f15,negative).
example(e619,f16,negative).
example(e619,f17,negative).
example(e619,f18,negative).
example(e619,f19,negative).
example(e619,f20,negative).
example(e619,f21,negative).
example(e619,f22,negative).
example(e619,f23,negative).
example(e619,f24,negative).
example(e619,f25,positive).
example(e619,f26,negative).
example(e619,f27,negative).
example(e619,f28,negative).
example(e619,f29,negative).
example(e619,f30,negative).
example(e619,f31,negative).
example(e619,f32,negative).
example(e619,f33,positive).
example(e619,f34,negative).
example(e620,f1,negative).
example(e620,f2,negative).
example(e620,f3,negative).
example(e620,f4,negative).
example(e620,f5,negative).
example(e620,f6,negative).
example(e620,f7,positive).
example(e620,f8,positive).
example(e620,f9,negative).
example(e620,f10,negative).
example(e620,f11,negative).
example(e620,f12,negative).
example(e620,f13,negative).
example(e620,f14,positive).
example(e620,f15,negative).
example(e620,f16,negative).
example(e620,f17,negative).
example(e620,f18,negative).
example(e620,f19,negative).
example(e620,f20,negative).
example(e620,f21,negative).
example(e620,f22,negative).
example(e620,f23,negative).
example(e620,f24,negative).
example(e620,f25,positive).
example(e620,f26,negative).
example(e620,f27,negative).
example(e620,f28,negative).
example(e620,f29,negative).
example(e620,f30,positive).
example(e620,f31,positive).
example(e620,f32,negative).
example(e620,f33,positive).
example(e620,f34,negative).
example(e621,f1,negative).
example(e621,f2,negative).
example(e621,f3,negative).
example(e621,f4,positive).
example(e621,f5,negative).
example(e621,f6,negative).
example(e621,f7,positive).
example(e621,f8,positive).
example(e621,f9,negative).
example(e621,f10,negative).
example(e621,f11,negative).
example(e621,f12,negative).
example(e621,f13,negative).
example(e621,f14,negative).
example(e621,f15,negative).
example(e621,f16,positive).
example(e621,f17,negative).
example(e621,f18,negative).
example(e621,f19,negative).
example(e621,f20,negative).
example(e621,f21,negative).
example(e621,f22,negative).
example(e621,f23,negative).
example(e621,f24,negative).
example(e621,f25,negative).
example(e621,f26,positive).
example(e621,f27,negative).
example(e621,f28,negative).
example(e621,f29,negative).
example(e621,f30,negative).
example(e621,f31,negative).
example(e621,f32,positive).
example(e621,f33,positive).
example(e621,f34,negative).
example(e622,f1,negative).
example(e622,f2,negative).
example(e622,f3,negative).
example(e622,f4,negative).
example(e622,f5,negative).
example(e622,f6,negative).
example(e622,f7,negative).
example(e622,f8,positive).
example(e622,f9,negative).
example(e622,f10,negative).
example(e622,f11,positive).
example(e622,f12,negative).
example(e622,f13,negative).
example(e622,f14,negative).
example(e622,f15,negative).
example(e622,f16,negative).
example(e622,f17,negative).
example(e622,f18,negative).
example(e622,f19,negative).
example(e622,f20,negative).
example(e622,f21,negative).
example(e622,f22,negative).
example(e622,f23,negative).
example(e622,f24,negative).
example(e622,f25,positive).
example(e622,f26,negative).
example(e622,f27,negative).
example(e622,f28,negative).
example(e622,f29,negative).
example(e622,f30,positive).
example(e622,f31,positive).
example(e622,f32,negative).
example(e622,f33,positive).
example(e622,f34,negative).
example(e623,f1,negative).
example(e623,f2,negative).
example(e623,f3,negative).
example(e623,f4,negative).
example(e623,f5,negative).
example(e623,f6,negative).
example(e623,f7,negative).
example(e623,f8,positive).
example(e623,f9,negative).
example(e623,f10,negative).
example(e623,f11,positive).
example(e623,f12,negative).
example(e623,f13,negative).
example(e623,f14,negative).
example(e623,f15,negative).
example(e623,f16,negative).
example(e623,f17,negative).
example(e623,f18,negative).
example(e623,f19,negative).
example(e623,f20,negative).
example(e623,f21,negative).
example(e623,f22,negative).
example(e623,f23,negative).
example(e623,f24,negative).
example(e623,f25,positive).
example(e623,f26,negative).
example(e623,f27,negative).
example(e623,f28,negative).
example(e623,f29,negative).
example(e623,f30,positive).
example(e623,f31,positive).
example(e623,f32,negative).
example(e623,f33,positive).
example(e623,f34,negative).
example(e624,f1,negative).
example(e624,f2,negative).
example(e624,f3,negative).
example(e624,f4,positive).
example(e624,f5,negative).
example(e624,f6,negative).
example(e624,f7,positive).
example(e624,f8,positive).
example(e624,f9,negative).
example(e624,f10,negative).
example(e624,f11,negative).
example(e624,f12,negative).
example(e624,f13,negative).
example(e624,f14,negative).
example(e624,f15,negative).
example(e624,f16,negative).
example(e624,f17,negative).
example(e624,f18,negative).
example(e624,f19,negative).
example(e624,f20,negative).
example(e624,f21,positive).
example(e624,f22,negative).
example(e624,f23,negative).
example(e624,f24,negative).
example(e624,f25,positive).
example(e624,f26,negative).
example(e624,f27,negative).
example(e624,f28,negative).
example(e624,f29,negative).
example(e624,f30,negative).
example(e624,f31,negative).
example(e624,f32,positive).
example(e624,f33,positive).
example(e624,f34,negative).
example(e625,f1,negative).
example(e625,f2,negative).
example(e625,f3,negative).
example(e625,f4,positive).
example(e625,f5,negative).
example(e625,f6,positive).
example(e625,f7,positive).
example(e625,f8,positive).
example(e625,f9,negative).
example(e625,f10,negative).
example(e625,f11,negative).
example(e625,f12,negative).
example(e625,f13,negative).
example(e625,f14,negative).
example(e625,f15,negative).
example(e625,f16,negative).
example(e625,f17,negative).
example(e625,f18,negative).
example(e625,f19,negative).
example(e625,f20,negative).
example(e625,f21,negative).
example(e625,f22,positive).
example(e625,f23,negative).
example(e625,f24,negative).
example(e625,f25,positive).
example(e625,f26,negative).
example(e625,f27,negative).
example(e625,f28,negative).
example(e625,f29,negative).
example(e625,f30,positive).
example(e625,f31,negative).
example(e625,f32,positive).
example(e625,f33,positive).
example(e625,f34,negative).
example(e626,f1,negative).
example(e626,f2,negative).
example(e626,f3,negative).
example(e626,f4,positive).
example(e626,f5,negative).
example(e626,f6,positive).
example(e626,f7,positive).
example(e626,f8,negative).
example(e626,f9,negative).
example(e626,f10,negative).
example(e626,f11,negative).
example(e626,f12,negative).
example(e626,f13,negative).
example(e626,f14,negative).
example(e626,f15,negative).
example(e626,f16,negative).
example(e626,f17,negative).
example(e626,f18,negative).
example(e626,f19,positive).
example(e626,f20,negative).
example(e626,f21,negative).
example(e626,f22,negative).
example(e626,f23,negative).
example(e626,f24,negative).
example(e626,f25,positive).
example(e626,f26,negative).
example(e626,f27,negative).
example(e626,f28,negative).
example(e626,f29,negative).
example(e626,f30,positive).
example(e626,f31,negative).
example(e626,f32,negative).
example(e626,f33,positive).
example(e626,f34,negative).
example(e627,f1,negative).
example(e627,f2,negative).
example(e627,f3,negative).
example(e627,f4,positive).
example(e627,f5,negative).
example(e627,f6,positive).
example(e627,f7,negative).
example(e627,f8,positive).
example(e627,f9,negative).
example(e627,f10,negative).
example(e627,f11,positive).
example(e627,f12,negative).
example(e627,f13,negative).
example(e627,f14,negative).
example(e627,f15,negative).
example(e627,f16,negative).
example(e627,f17,negative).
example(e627,f18,negative).
example(e627,f19,negative).
example(e627,f20,negative).
example(e627,f21,negative).
example(e627,f22,negative).
example(e627,f23,negative).
example(e627,f24,negative).
example(e627,f25,positive).
example(e627,f26,negative).
example(e627,f27,negative).
example(e627,f28,negative).
example(e627,f29,negative).
example(e627,f30,positive).
example(e627,f31,negative).
example(e627,f32,positive).
example(e627,f33,positive).
example(e627,f34,negative).
example(e628,f1,negative).
example(e628,f2,negative).
example(e628,f3,negative).
example(e628,f4,positive).
example(e628,f5,negative).
example(e628,f6,negative).
example(e628,f7,positive).
example(e628,f8,negative).
example(e628,f9,negative).
example(e628,f10,negative).
example(e628,f11,negative).
example(e628,f12,negative).
example(e628,f13,negative).
example(e628,f14,negative).
example(e628,f15,negative).
example(e628,f16,negative).
example(e628,f17,negative).
example(e628,f18,negative).
example(e628,f19,negative).
example(e628,f20,negative).
example(e628,f21,positive).
example(e628,f22,negative).
example(e628,f23,negative).
example(e628,f24,negative).
example(e628,f25,positive).
example(e628,f26,negative).
example(e628,f27,negative).
example(e628,f28,negative).
example(e628,f29,negative).
example(e628,f30,negative).
example(e628,f31,negative).
example(e628,f32,negative).
example(e628,f33,positive).
example(e628,f34,negative).
example(e629,f1,negative).
example(e629,f2,negative).
example(e629,f3,negative).
example(e629,f4,negative).
example(e629,f5,negative).
example(e629,f6,negative).
example(e629,f7,negative).
example(e629,f8,negative).
example(e629,f9,negative).
example(e629,f10,negative).
example(e629,f11,negative).
example(e629,f12,negative).
example(e629,f13,negative).
example(e629,f14,negative).
example(e629,f15,negative).
example(e629,f16,negative).
example(e629,f17,negative).
example(e629,f18,negative).
example(e629,f19,negative).
example(e629,f20,negative).
example(e629,f21,negative).
example(e629,f22,negative).
example(e629,f23,negative).
example(e629,f24,negative).
example(e629,f25,negative).
example(e629,f26,negative).
example(e629,f27,negative).
example(e629,f28,negative).
example(e629,f29,negative).
example(e629,f30,positive).
example(e629,f31,positive).
example(e629,f32,negative).
example(e629,f33,positive).
example(e629,f34,negative).
example(e630,f1,negative).
example(e630,f2,negative).
example(e630,f3,negative).
example(e630,f4,positive).
example(e630,f5,negative).
example(e630,f6,negative).
example(e630,f7,positive).
example(e630,f8,positive).
example(e630,f9,negative).
example(e630,f10,negative).
example(e630,f11,negative).
example(e630,f12,negative).
example(e630,f13,negative).
example(e630,f14,negative).
example(e630,f15,negative).
example(e630,f16,negative).
example(e630,f17,negative).
example(e630,f18,negative).
example(e630,f19,negative).
example(e630,f20,positive).
example(e630,f21,negative).
example(e630,f22,negative).
example(e630,f23,negative).
example(e630,f24,negative).
example(e630,f25,positive).
example(e630,f26,negative).
example(e630,f27,negative).
example(e630,f28,negative).
example(e630,f29,negative).
example(e630,f30,negative).
example(e630,f31,negative).
example(e630,f32,positive).
example(e630,f33,positive).
example(e630,f34,negative).
example(e631,f1,negative).
example(e631,f2,negative).
example(e631,f3,negative).
example(e631,f4,positive).
example(e631,f5,negative).
example(e631,f6,positive).
example(e631,f7,positive).
example(e631,f8,negative).
example(e631,f9,negative).
example(e631,f10,positive).
example(e631,f11,negative).
example(e631,f12,negative).
example(e631,f13,negative).
example(e631,f14,negative).
example(e631,f15,negative).
example(e631,f16,negative).
example(e631,f17,negative).
example(e631,f18,negative).
example(e631,f19,negative).
example(e631,f20,negative).
example(e631,f21,negative).
example(e631,f22,negative).
example(e631,f23,negative).
example(e631,f24,negative).
example(e631,f25,negative).
example(e631,f26,negative).
example(e631,f27,negative).
example(e631,f28,positive).
example(e631,f29,negative).
example(e631,f30,positive).
example(e631,f31,negative).
example(e631,f32,positive).
example(e631,f33,positive).
example(e631,f34,negative).
example(e632,f1,negative).
example(e632,f2,negative).
example(e632,f3,negative).
example(e632,f4,positive).
example(e632,f5,negative).
example(e632,f6,negative).
example(e632,f7,positive).
example(e632,f8,positive).
example(e632,f9,negative).
example(e632,f10,negative).
example(e632,f11,negative).
example(e632,f12,negative).
example(e632,f13,negative).
example(e632,f14,negative).
example(e632,f15,negative).
example(e632,f16,positive).
example(e632,f17,negative).
example(e632,f18,negative).
example(e632,f19,negative).
example(e632,f20,negative).
example(e632,f21,negative).
example(e632,f22,negative).
example(e632,f23,negative).
example(e632,f24,negative).
example(e632,f25,negative).
example(e632,f26,positive).
example(e632,f27,negative).
example(e632,f28,negative).
example(e632,f29,negative).
example(e632,f30,negative).
example(e632,f31,negative).
example(e632,f32,negative).
example(e632,f33,positive).
example(e632,f34,negative).
example(e633,f1,negative).
example(e633,f2,negative).
example(e633,f3,negative).
example(e633,f4,positive).
example(e633,f5,negative).
example(e633,f6,positive).
example(e633,f7,negative).
example(e633,f8,positive).
example(e633,f9,negative).
example(e633,f10,negative).
example(e633,f11,negative).
example(e633,f12,negative).
example(e633,f13,negative).
example(e633,f14,negative).
example(e633,f15,negative).
example(e633,f16,negative).
example(e633,f17,negative).
example(e633,f18,negative).
example(e633,f19,negative).
example(e633,f20,negative).
example(e633,f21,negative).
example(e633,f22,positive).
example(e633,f23,negative).
example(e633,f24,negative).
example(e633,f25,positive).
example(e633,f26,negative).
example(e633,f27,negative).
example(e633,f28,negative).
example(e633,f29,negative).
example(e633,f30,positive).
example(e633,f31,negative).
example(e633,f32,negative).
example(e633,f33,negative).
example(e633,f34,negative).
example(e634,f1,negative).
example(e634,f2,negative).
example(e634,f3,negative).
example(e634,f4,negative).
example(e634,f5,negative).
example(e634,f6,negative).
example(e634,f7,positive).
example(e634,f8,positive).
example(e634,f9,negative).
example(e634,f10,negative).
example(e634,f11,negative).
example(e634,f12,negative).
example(e634,f13,negative).
example(e634,f14,negative).
example(e634,f15,negative).
example(e634,f16,negative).
example(e634,f17,negative).
example(e634,f18,negative).
example(e634,f19,negative).
example(e634,f20,negative).
example(e634,f21,negative).
example(e634,f22,positive).
example(e634,f23,negative).
example(e634,f24,negative).
example(e634,f25,positive).
example(e634,f26,negative).
example(e634,f27,negative).
example(e634,f28,negative).
example(e634,f29,negative).
example(e634,f30,negative).
example(e634,f31,positive).
example(e634,f32,negative).
example(e634,f33,positive).
example(e634,f34,negative).
example(e635,f1,negative).
example(e635,f2,negative).
example(e635,f3,negative).
example(e635,f4,positive).
example(e635,f5,negative).
example(e635,f6,positive).
example(e635,f7,positive).
example(e635,f8,positive).
example(e635,f9,negative).
example(e635,f10,negative).
example(e635,f11,negative).
example(e635,f12,negative).
example(e635,f13,negative).
example(e635,f14,negative).
example(e635,f15,negative).
example(e635,f16,negative).
example(e635,f17,negative).
example(e635,f18,negative).
example(e635,f19,negative).
example(e635,f20,negative).
example(e635,f21,negative).
example(e635,f22,negative).
example(e635,f23,negative).
example(e635,f24,negative).
example(e635,f25,negative).
example(e635,f26,negative).
example(e635,f27,negative).
example(e635,f28,negative).
example(e635,f29,negative).
example(e635,f30,negative).
example(e635,f31,negative).
example(e635,f32,negative).
example(e635,f33,positive).
example(e635,f34,negative).
example(e636,f1,negative).
example(e636,f2,negative).
example(e636,f3,negative).
example(e636,f4,negative).
example(e636,f5,negative).
example(e636,f6,negative).
example(e636,f7,positive).
example(e636,f8,negative).
example(e636,f9,negative).
example(e636,f10,negative).
example(e636,f11,negative).
example(e636,f12,negative).
example(e636,f13,negative).
example(e636,f14,negative).
example(e636,f15,negative).
example(e636,f16,negative).
example(e636,f17,positive).
example(e636,f18,negative).
example(e636,f19,negative).
example(e636,f20,negative).
example(e636,f21,negative).
example(e636,f22,negative).
example(e636,f23,negative).
example(e636,f24,negative).
example(e636,f25,positive).
example(e636,f26,negative).
example(e636,f27,negative).
example(e636,f28,negative).
example(e636,f29,negative).
example(e636,f30,positive).
example(e636,f31,positive).
example(e636,f32,negative).
example(e636,f33,positive).
example(e636,f34,negative).
example(e637,f1,negative).
example(e637,f2,negative).
example(e637,f3,negative).
example(e637,f4,positive).
example(e637,f5,negative).
example(e637,f6,positive).
example(e637,f7,positive).
example(e637,f8,positive).
example(e637,f9,negative).
example(e637,f10,negative).
example(e637,f11,negative).
example(e637,f12,negative).
example(e637,f13,negative).
example(e637,f14,negative).
example(e637,f15,negative).
example(e637,f16,negative).
example(e637,f17,negative).
example(e637,f18,negative).
example(e637,f19,negative).
example(e637,f20,negative).
example(e637,f21,positive).
example(e637,f22,negative).
example(e637,f23,negative).
example(e637,f24,negative).
example(e637,f25,positive).
example(e637,f26,negative).
example(e637,f27,negative).
example(e637,f28,negative).
example(e637,f29,negative).
example(e637,f30,negative).
example(e637,f31,negative).
example(e637,f32,negative).
example(e637,f33,positive).
example(e637,f34,negative).
example(e638,f1,negative).
example(e638,f2,negative).
example(e638,f3,negative).
example(e638,f4,positive).
example(e638,f5,negative).
example(e638,f6,positive).
example(e638,f7,positive).
example(e638,f8,positive).
example(e638,f9,negative).
example(e638,f10,negative).
example(e638,f11,negative).
example(e638,f12,negative).
example(e638,f13,negative).
example(e638,f14,negative).
example(e638,f15,negative).
example(e638,f16,positive).
example(e638,f17,negative).
example(e638,f18,negative).
example(e638,f19,negative).
example(e638,f20,negative).
example(e638,f21,negative).
example(e638,f22,negative).
example(e638,f23,negative).
example(e638,f24,negative).
example(e638,f25,negative).
example(e638,f26,negative).
example(e638,f27,negative).
example(e638,f28,positive).
example(e638,f29,negative).
example(e638,f30,negative).
example(e638,f31,negative).
example(e638,f32,positive).
example(e638,f33,positive).
example(e638,f34,negative).
example(e639,f1,negative).
example(e639,f2,negative).
example(e639,f3,negative).
example(e639,f4,positive).
example(e639,f5,negative).
example(e639,f6,positive).
example(e639,f7,positive).
example(e639,f8,positive).
example(e639,f9,negative).
example(e639,f10,negative).
example(e639,f11,negative).
example(e639,f12,negative).
example(e639,f13,negative).
example(e639,f14,negative).
example(e639,f15,positive).
example(e639,f16,negative).
example(e639,f17,negative).
example(e639,f18,negative).
example(e639,f19,negative).
example(e639,f20,negative).
example(e639,f21,negative).
example(e639,f22,negative).
example(e639,f23,negative).
example(e639,f24,negative).
example(e639,f25,positive).
example(e639,f26,negative).
example(e639,f27,negative).
example(e639,f28,negative).
example(e639,f29,negative).
example(e639,f30,negative).
example(e639,f31,negative).
example(e639,f32,positive).
example(e639,f33,positive).
example(e639,f34,negative).
example(e640,f1,negative).
example(e640,f2,negative).
example(e640,f3,negative).
example(e640,f4,positive).
example(e640,f5,negative).
example(e640,f6,positive).
example(e640,f7,positive).
example(e640,f8,positive).
example(e640,f9,negative).
example(e640,f10,negative).
example(e640,f11,negative).
example(e640,f12,negative).
example(e640,f13,negative).
example(e640,f14,negative).
example(e640,f15,negative).
example(e640,f16,negative).
example(e640,f17,negative).
example(e640,f18,negative).
example(e640,f19,positive).
example(e640,f20,negative).
example(e640,f21,negative).
example(e640,f22,negative).
example(e640,f23,negative).
example(e640,f24,negative).
example(e640,f25,positive).
example(e640,f26,negative).
example(e640,f27,negative).
example(e640,f28,negative).
example(e640,f29,negative).
example(e640,f30,positive).
example(e640,f31,negative).
example(e640,f32,negative).
example(e640,f33,negative).
example(e640,f34,negative).
example(e641,f1,negative).
example(e641,f2,negative).
example(e641,f3,negative).
example(e641,f4,positive).
example(e641,f5,negative).
example(e641,f6,negative).
example(e641,f7,positive).
example(e641,f8,positive).
example(e641,f9,negative).
example(e641,f10,negative).
example(e641,f11,negative).
example(e641,f12,negative).
example(e641,f13,negative).
example(e641,f14,negative).
example(e641,f15,negative).
example(e641,f16,negative).
example(e641,f17,negative).
example(e641,f18,negative).
example(e641,f19,negative).
example(e641,f20,negative).
example(e641,f21,negative).
example(e641,f22,negative).
example(e641,f23,negative).
example(e641,f24,negative).
example(e641,f25,negative).
example(e641,f26,negative).
example(e641,f27,negative).
example(e641,f28,negative).
example(e641,f29,negative).
example(e641,f30,negative).
example(e641,f31,negative).
example(e641,f32,negative).
example(e641,f33,positive).
example(e641,f34,negative).
example(e642,f1,negative).
example(e642,f2,negative).
example(e642,f3,negative).
example(e642,f4,negative).
example(e642,f5,negative).
example(e642,f6,negative).
example(e642,f7,negative).
example(e642,f8,negative).
example(e642,f9,negative).
example(e642,f10,negative).
example(e642,f11,positive).
example(e642,f12,negative).
example(e642,f13,negative).
example(e642,f14,negative).
example(e642,f15,negative).
example(e642,f16,negative).
example(e642,f17,negative).
example(e642,f18,negative).
example(e642,f19,negative).
example(e642,f20,negative).
example(e642,f21,negative).
example(e642,f22,negative).
example(e642,f23,negative).
example(e642,f24,negative).
example(e642,f25,negative).
example(e642,f26,negative).
example(e642,f27,negative).
example(e642,f28,positive).
example(e642,f29,negative).
example(e642,f30,positive).
example(e642,f31,positive).
example(e642,f32,positive).
example(e642,f33,positive).
example(e642,f34,negative).
example(e643,f1,negative).
example(e643,f2,negative).
example(e643,f3,negative).
example(e643,f4,negative).
example(e643,f5,negative).
example(e643,f6,negative).
example(e643,f7,positive).
example(e643,f8,positive).
example(e643,f9,negative).
example(e643,f10,negative).
example(e643,f11,negative).
example(e643,f12,negative).
example(e643,f13,negative).
example(e643,f14,positive).
example(e643,f15,negative).
example(e643,f16,negative).
example(e643,f17,negative).
example(e643,f18,negative).
example(e643,f19,negative).
example(e643,f20,negative).
example(e643,f21,negative).
example(e643,f22,negative).
example(e643,f23,negative).
example(e643,f24,negative).
example(e643,f25,negative).
example(e643,f26,negative).
example(e643,f27,negative).
example(e643,f28,positive).
example(e643,f29,negative).
example(e643,f30,positive).
example(e643,f31,positive).
example(e643,f32,positive).
example(e643,f33,positive).
example(e643,f34,negative).
example(e644,f1,negative).
example(e644,f2,negative).
example(e644,f3,negative).
example(e644,f4,positive).
example(e644,f5,negative).
example(e644,f6,positive).
example(e644,f7,positive).
example(e644,f8,positive).
example(e644,f9,negative).
example(e644,f10,negative).
example(e644,f11,negative).
example(e644,f12,negative).
example(e644,f13,negative).
example(e644,f14,negative).
example(e644,f15,negative).
example(e644,f16,negative).
example(e644,f17,negative).
example(e644,f18,negative).
example(e644,f19,negative).
example(e644,f20,negative).
example(e644,f21,positive).
example(e644,f22,negative).
example(e644,f23,negative).
example(e644,f24,negative).
example(e644,f25,positive).
example(e644,f26,negative).
example(e644,f27,negative).
example(e644,f28,negative).
example(e644,f29,negative).
example(e644,f30,negative).
example(e644,f31,negative).
example(e644,f32,negative).
example(e644,f33,negative).
example(e644,f34,negative).
example(e645,f1,negative).
example(e645,f2,negative).
example(e645,f3,negative).
example(e645,f4,negative).
example(e645,f5,positive).
example(e645,f6,negative).
example(e645,f7,positive).
example(e645,f8,positive).
example(e645,f9,negative).
example(e645,f10,negative).
example(e645,f11,positive).
example(e645,f12,negative).
example(e645,f13,negative).
example(e645,f14,negative).
example(e645,f15,negative).
example(e645,f16,negative).
example(e645,f17,negative).
example(e645,f18,negative).
example(e645,f19,negative).
example(e645,f20,negative).
example(e645,f21,negative).
example(e645,f22,negative).
example(e645,f23,negative).
example(e645,f24,negative).
example(e645,f25,positive).
example(e645,f26,negative).
example(e645,f27,negative).
example(e645,f28,negative).
example(e645,f29,negative).
example(e645,f30,positive).
example(e645,f31,positive).
example(e645,f32,negative).
example(e645,f33,positive).
example(e645,f34,negative).
example(e646,f1,negative).
example(e646,f2,negative).
example(e646,f3,negative).
example(e646,f4,positive).
example(e646,f5,negative).
example(e646,f6,positive).
example(e646,f7,positive).
example(e646,f8,positive).
example(e646,f9,negative).
example(e646,f10,negative).
example(e646,f11,negative).
example(e646,f12,negative).
example(e646,f13,negative).
example(e646,f14,negative).
example(e646,f15,positive).
example(e646,f16,negative).
example(e646,f17,negative).
example(e646,f18,negative).
example(e646,f19,negative).
example(e646,f20,negative).
example(e646,f21,negative).
example(e646,f22,negative).
example(e646,f23,negative).
example(e646,f24,negative).
example(e646,f25,negative).
example(e646,f26,negative).
example(e646,f27,negative).
example(e646,f28,positive).
example(e646,f29,negative).
example(e646,f30,negative).
example(e646,f31,negative).
example(e646,f32,positive).
example(e646,f33,negative).
example(e646,f34,negative).
example(e647,f1,negative).
example(e647,f2,negative).
example(e647,f3,negative).
example(e647,f4,negative).
example(e647,f5,negative).
example(e647,f6,negative).
example(e647,f7,negative).
example(e647,f8,positive).
example(e647,f9,negative).
example(e647,f10,negative).
example(e647,f11,negative).
example(e647,f12,negative).
example(e647,f13,negative).
example(e647,f14,negative).
example(e647,f15,negative).
example(e647,f16,negative).
example(e647,f17,negative).
example(e647,f18,negative).
example(e647,f19,negative).
example(e647,f20,negative).
example(e647,f21,positive).
example(e647,f22,negative).
example(e647,f23,negative).
example(e647,f24,negative).
example(e647,f25,positive).
example(e647,f26,negative).
example(e647,f27,negative).
example(e647,f28,negative).
example(e647,f29,negative).
example(e647,f30,positive).
example(e647,f31,positive).
example(e647,f32,positive).
example(e647,f33,positive).
example(e647,f34,negative).
example(e648,f1,negative).
example(e648,f2,negative).
example(e648,f3,negative).
example(e648,f4,positive).
example(e648,f5,negative).
example(e648,f6,positive).
example(e648,f7,positive).
example(e648,f8,positive).
example(e648,f9,negative).
example(e648,f10,negative).
example(e648,f11,negative).
example(e648,f12,negative).
example(e648,f13,positive).
example(e648,f14,negative).
example(e648,f15,negative).
example(e648,f16,negative).
example(e648,f17,negative).
example(e648,f18,negative).
example(e648,f19,negative).
example(e648,f20,negative).
example(e648,f21,negative).
example(e648,f22,negative).
example(e648,f23,negative).
example(e648,f24,negative).
example(e648,f25,positive).
example(e648,f26,negative).
example(e648,f27,negative).
example(e648,f28,negative).
example(e648,f29,negative).
example(e648,f30,negative).
example(e648,f31,negative).
example(e648,f32,negative).
example(e648,f33,positive).
example(e648,f34,negative).
example(e649,f1,negative).
example(e649,f2,negative).
example(e649,f3,negative).
example(e649,f4,positive).
example(e649,f5,positive).
example(e649,f6,negative).
example(e649,f7,positive).
example(e649,f8,negative).
example(e649,f9,negative).
example(e649,f10,negative).
example(e649,f11,negative).
example(e649,f12,negative).
example(e649,f13,negative).
example(e649,f14,negative).
example(e649,f15,negative).
example(e649,f16,negative).
example(e649,f17,negative).
example(e649,f18,negative).
example(e649,f19,negative).
example(e649,f20,negative).
example(e649,f21,positive).
example(e649,f22,negative).
example(e649,f23,negative).
example(e649,f24,negative).
example(e649,f25,positive).
example(e649,f26,negative).
example(e649,f27,negative).
example(e649,f28,negative).
example(e649,f29,negative).
example(e649,f30,positive).
example(e649,f31,negative).
example(e649,f32,positive).
example(e649,f33,positive).
example(e649,f34,negative).
example(e650,f1,negative).
example(e650,f2,negative).
example(e650,f3,negative).
example(e650,f4,negative).
example(e650,f5,negative).
example(e650,f6,negative).
example(e650,f7,positive).
example(e650,f8,positive).
example(e650,f9,negative).
example(e650,f10,negative).
example(e650,f11,positive).
example(e650,f12,negative).
example(e650,f13,negative).
example(e650,f14,negative).
example(e650,f15,negative).
example(e650,f16,negative).
example(e650,f17,negative).
example(e650,f18,negative).
example(e650,f19,negative).
example(e650,f20,negative).
example(e650,f21,negative).
example(e650,f22,negative).
example(e650,f23,negative).
example(e650,f24,negative).
example(e650,f25,negative).
example(e650,f26,negative).
example(e650,f27,negative).
example(e650,f28,positive).
example(e650,f29,negative).
example(e650,f30,positive).
example(e650,f31,positive).
example(e650,f32,negative).
example(e650,f33,positive).
example(e650,f34,negative).
example(e651,f1,negative).
example(e651,f2,negative).
example(e651,f3,negative).
example(e651,f4,positive).
example(e651,f5,negative).
example(e651,f6,positive).
example(e651,f7,positive).
example(e651,f8,positive).
example(e651,f9,negative).
example(e651,f10,negative).
example(e651,f11,positive).
example(e651,f12,negative).
example(e651,f13,negative).
example(e651,f14,negative).
example(e651,f15,negative).
example(e651,f16,negative).
example(e651,f17,negative).
example(e651,f18,negative).
example(e651,f19,negative).
example(e651,f20,negative).
example(e651,f21,negative).
example(e651,f22,negative).
example(e651,f23,negative).
example(e651,f24,negative).
example(e651,f25,positive).
example(e651,f26,negative).
example(e651,f27,negative).
example(e651,f28,negative).
example(e651,f29,negative).
example(e651,f30,positive).
example(e651,f31,negative).
example(e651,f32,positive).
example(e651,f33,positive).
example(e651,f34,negative).
example(e652,f1,negative).
example(e652,f2,negative).
example(e652,f3,negative).
example(e652,f4,negative).
example(e652,f5,negative).
example(e652,f6,negative).
example(e652,f7,positive).
example(e652,f8,negative).
example(e652,f9,negative).
example(e652,f10,negative).
example(e652,f11,negative).
example(e652,f12,negative).
example(e652,f13,negative).
example(e652,f14,negative).
example(e652,f15,negative).
example(e652,f16,negative).
example(e652,f17,positive).
example(e652,f18,negative).
example(e652,f19,negative).
example(e652,f20,negative).
example(e652,f21,negative).
example(e652,f22,negative).
example(e652,f23,negative).
example(e652,f24,negative).
example(e652,f25,positive).
example(e652,f26,negative).
example(e652,f27,negative).
example(e652,f28,negative).
example(e652,f29,negative).
example(e652,f30,negative).
example(e652,f31,positive).
example(e652,f32,positive).
example(e652,f33,positive).
example(e652,f34,negative).
example(e653,f1,negative).
example(e653,f2,negative).
example(e653,f3,positive).
example(e653,f4,positive).
example(e653,f5,negative).
example(e653,f6,negative).
example(e653,f7,positive).
example(e653,f8,positive).
example(e653,f9,negative).
example(e653,f10,positive).
example(e653,f11,negative).
example(e653,f12,negative).
example(e653,f13,negative).
example(e653,f14,negative).
example(e653,f15,negative).
example(e653,f16,negative).
example(e653,f17,negative).
example(e653,f18,negative).
example(e653,f19,negative).
example(e653,f20,negative).
example(e653,f21,negative).
example(e653,f22,negative).
example(e653,f23,positive).
example(e653,f24,negative).
example(e653,f25,negative).
example(e653,f26,negative).
example(e653,f27,negative).
example(e653,f28,negative).
example(e653,f29,negative).
example(e653,f30,negative).
example(e653,f31,negative).
example(e653,f32,positive).
example(e653,f33,positive).
example(e653,f34,negative).
example(e654,f1,negative).
example(e654,f2,negative).
example(e654,f3,negative).
example(e654,f4,negative).
example(e654,f5,positive).
example(e654,f6,negative).
example(e654,f7,positive).
example(e654,f8,positive).
example(e654,f9,negative).
example(e654,f10,negative).
example(e654,f11,negative).
example(e654,f12,negative).
example(e654,f13,negative).
example(e654,f14,negative).
example(e654,f15,negative).
example(e654,f16,negative).
example(e654,f17,negative).
example(e654,f18,negative).
example(e654,f19,negative).
example(e654,f20,negative).
example(e654,f21,positive).
example(e654,f22,negative).
example(e654,f23,negative).
example(e654,f24,negative).
example(e654,f25,negative).
example(e654,f26,negative).
example(e654,f27,negative).
example(e654,f28,positive).
example(e654,f29,negative).
example(e654,f30,positive).
example(e654,f31,positive).
example(e654,f32,positive).
example(e654,f33,positive).
example(e654,f34,negative).
example(e655,f1,negative).
example(e655,f2,negative).
example(e655,f3,negative).
example(e655,f4,positive).
example(e655,f5,negative).
example(e655,f6,positive).
example(e655,f7,positive).
example(e655,f8,positive).
example(e655,f9,negative).
example(e655,f10,negative).
example(e655,f11,negative).
example(e655,f12,negative).
example(e655,f13,negative).
example(e655,f14,negative).
example(e655,f15,positive).
example(e655,f16,negative).
example(e655,f17,negative).
example(e655,f18,negative).
example(e655,f19,negative).
example(e655,f20,negative).
example(e655,f21,negative).
example(e655,f22,negative).
example(e655,f23,negative).
example(e655,f24,negative).
example(e655,f25,positive).
example(e655,f26,negative).
example(e655,f27,negative).
example(e655,f28,negative).
example(e655,f29,negative).
example(e655,f30,positive).
example(e655,f31,negative).
example(e655,f32,positive).
example(e655,f33,negative).
example(e655,f34,negative).
example(e656,f1,negative).
example(e656,f2,negative).
example(e656,f3,negative).
example(e656,f4,positive).
example(e656,f5,negative).
example(e656,f6,negative).
example(e656,f7,negative).
example(e656,f8,positive).
example(e656,f9,negative).
example(e656,f10,negative).
example(e656,f11,negative).
example(e656,f12,negative).
example(e656,f13,negative).
example(e656,f14,negative).
example(e656,f15,positive).
example(e656,f16,negative).
example(e656,f17,negative).
example(e656,f18,negative).
example(e656,f19,negative).
example(e656,f20,negative).
example(e656,f21,negative).
example(e656,f22,negative).
example(e656,f23,negative).
example(e656,f24,negative).
example(e656,f25,positive).
example(e656,f26,negative).
example(e656,f27,negative).
example(e656,f28,negative).
example(e656,f29,negative).
example(e656,f30,negative).
example(e656,f31,negative).
example(e656,f32,positive).
example(e656,f33,positive).
example(e656,f34,negative).
example(e657,f1,negative).
example(e657,f2,negative).
example(e657,f3,negative).
example(e657,f4,negative).
example(e657,f5,negative).
example(e657,f6,positive).
example(e657,f7,positive).
example(e657,f8,negative).
example(e657,f9,negative).
example(e657,f10,negative).
example(e657,f11,negative).
example(e657,f12,negative).
example(e657,f13,negative).
example(e657,f14,positive).
example(e657,f15,negative).
example(e657,f16,negative).
example(e657,f17,negative).
example(e657,f18,negative).
example(e657,f19,negative).
example(e657,f20,negative).
example(e657,f21,negative).
example(e657,f22,negative).
example(e657,f23,negative).
example(e657,f24,negative).
example(e657,f25,positive).
example(e657,f26,negative).
example(e657,f27,negative).
example(e657,f28,negative).
example(e657,f29,negative).
example(e657,f30,positive).
example(e657,f31,positive).
example(e657,f32,positive).
example(e657,f33,positive).
example(e657,f34,negative).
example(e658,f1,negative).
example(e658,f2,negative).
example(e658,f3,negative).
example(e658,f4,positive).
example(e658,f5,positive).
example(e658,f6,negative).
example(e658,f7,positive).
example(e658,f8,positive).
example(e658,f9,negative).
example(e658,f10,negative).
example(e658,f11,negative).
example(e658,f12,negative).
example(e658,f13,negative).
example(e658,f14,negative).
example(e658,f15,negative).
example(e658,f16,negative).
example(e658,f17,negative).
example(e658,f18,negative).
example(e658,f19,negative).
example(e658,f20,negative).
example(e658,f21,positive).
example(e658,f22,negative).
example(e658,f23,negative).
example(e658,f24,negative).
example(e658,f25,positive).
example(e658,f26,negative).
example(e658,f27,negative).
example(e658,f28,negative).
example(e658,f29,negative).
example(e658,f30,negative).
example(e658,f31,negative).
example(e658,f32,negative).
example(e658,f33,positive).
example(e658,f34,negative).
example(e659,f1,negative).
example(e659,f2,positive).
example(e659,f3,positive).
example(e659,f4,positive).
example(e659,f5,negative).
example(e659,f6,positive).
example(e659,f7,negative).
example(e659,f8,negative).
example(e659,f9,negative).
example(e659,f10,negative).
example(e659,f11,negative).
example(e659,f12,negative).
example(e659,f13,negative).
example(e659,f14,negative).
example(e659,f15,negative).
example(e659,f16,negative).
example(e659,f17,negative).
example(e659,f18,positive).
example(e659,f19,negative).
example(e659,f20,negative).
example(e659,f21,negative).
example(e659,f22,negative).
example(e659,f23,negative).
example(e659,f24,negative).
example(e659,f25,negative).
example(e659,f26,negative).
example(e659,f27,negative).
example(e659,f28,negative).
example(e659,f29,negative).
example(e659,f30,negative).
example(e659,f31,negative).
example(e659,f32,negative).
example(e659,f33,positive).
example(e659,f34,negative).
example(e660,f1,negative).
example(e660,f2,negative).
example(e660,f3,negative).
example(e660,f4,positive).
example(e660,f5,negative).
example(e660,f6,positive).
example(e660,f7,positive).
example(e660,f8,positive).
example(e660,f9,negative).
example(e660,f10,negative).
example(e660,f11,negative).
example(e660,f12,negative).
example(e660,f13,negative).
example(e660,f14,negative).
example(e660,f15,negative).
example(e660,f16,negative).
example(e660,f17,negative).
example(e660,f18,negative).
example(e660,f19,negative).
example(e660,f20,negative).
example(e660,f21,positive).
example(e660,f22,negative).
example(e660,f23,negative).
example(e660,f24,negative).
example(e660,f25,positive).
example(e660,f26,negative).
example(e660,f27,negative).
example(e660,f28,negative).
example(e660,f29,negative).
example(e660,f30,negative).
example(e660,f31,negative).
example(e660,f32,negative).
example(e660,f33,positive).
example(e660,f34,negative).
example(e661,f1,negative).
example(e661,f2,negative).
example(e661,f3,negative).
example(e661,f4,negative).
example(e661,f5,negative).
example(e661,f6,positive).
example(e661,f7,positive).
example(e661,f8,negative).
example(e661,f9,negative).
example(e661,f10,negative).
example(e661,f11,negative).
example(e661,f12,negative).
example(e661,f13,positive).
example(e661,f14,negative).
example(e661,f15,negative).
example(e661,f16,negative).
example(e661,f17,negative).
example(e661,f18,negative).
example(e661,f19,negative).
example(e661,f20,negative).
example(e661,f21,negative).
example(e661,f22,negative).
example(e661,f23,negative).
example(e661,f24,negative).
example(e661,f25,positive).
example(e661,f26,negative).
example(e661,f27,negative).
example(e661,f28,negative).
example(e661,f29,negative).
example(e661,f30,positive).
example(e661,f31,positive).
example(e661,f32,negative).
example(e661,f33,positive).
example(e661,f34,negative).
example(e662,f1,negative).
example(e662,f2,negative).
example(e662,f3,negative).
example(e662,f4,positive).
example(e662,f5,negative).
example(e662,f6,positive).
example(e662,f7,negative).
example(e662,f8,positive).
example(e662,f9,negative).
example(e662,f10,negative).
example(e662,f11,negative).
example(e662,f12,negative).
example(e662,f13,negative).
example(e662,f14,negative).
example(e662,f15,negative).
example(e662,f16,positive).
example(e662,f17,negative).
example(e662,f18,negative).
example(e662,f19,negative).
example(e662,f20,negative).
example(e662,f21,negative).
example(e662,f22,negative).
example(e662,f23,negative).
example(e662,f24,negative).
example(e662,f25,positive).
example(e662,f26,negative).
example(e662,f27,negative).
example(e662,f28,negative).
example(e662,f29,negative).
example(e662,f30,negative).
example(e662,f31,negative).
example(e662,f32,positive).
example(e662,f33,negative).
example(e662,f34,negative).
example(e663,f1,negative).
example(e663,f2,negative).
example(e663,f3,negative).
example(e663,f4,negative).
example(e663,f5,negative).
example(e663,f6,negative).
example(e663,f7,positive).
example(e663,f8,negative).
example(e663,f9,negative).
example(e663,f10,negative).
example(e663,f11,negative).
example(e663,f12,negative).
example(e663,f13,negative).
example(e663,f14,negative).
example(e663,f15,negative).
example(e663,f16,negative).
example(e663,f17,negative).
example(e663,f18,negative).
example(e663,f19,positive).
example(e663,f20,negative).
example(e663,f21,negative).
example(e663,f22,negative).
example(e663,f23,negative).
example(e663,f24,negative).
example(e663,f25,positive).
example(e663,f26,negative).
example(e663,f27,negative).
example(e663,f28,negative).
example(e663,f29,negative).
example(e663,f30,positive).
example(e663,f31,positive).
example(e663,f32,negative).
example(e663,f33,positive).
example(e663,f34,negative).
example(e664,f1,negative).
example(e664,f2,negative).
example(e664,f3,negative).
example(e664,f4,positive).
example(e664,f5,negative).
example(e664,f6,negative).
example(e664,f7,negative).
example(e664,f8,positive).
example(e664,f9,negative).
example(e664,f10,negative).
example(e664,f11,negative).
example(e664,f12,negative).
example(e664,f13,negative).
example(e664,f14,negative).
example(e664,f15,negative).
example(e664,f16,negative).
example(e664,f17,negative).
example(e664,f18,negative).
example(e664,f19,positive).
example(e664,f20,negative).
example(e664,f21,negative).
example(e664,f22,negative).
example(e664,f23,negative).
example(e664,f24,negative).
example(e664,f25,positive).
example(e664,f26,negative).
example(e664,f27,negative).
example(e664,f28,negative).
example(e664,f29,negative).
example(e664,f30,positive).
example(e664,f31,negative).
example(e664,f32,negative).
example(e664,f33,positive).
example(e664,f34,negative).
example(e665,f1,negative).
example(e665,f2,positive).
example(e665,f3,negative).
example(e665,f4,positive).
example(e665,f5,negative).
example(e665,f6,positive).
example(e665,f7,positive).
example(e665,f8,positive).
example(e665,f9,negative).
example(e665,f10,negative).
example(e665,f11,negative).
example(e665,f12,negative).
example(e665,f13,negative).
example(e665,f14,negative).
example(e665,f15,positive).
example(e665,f16,negative).
example(e665,f17,negative).
example(e665,f18,negative).
example(e665,f19,negative).
example(e665,f20,negative).
example(e665,f21,negative).
example(e665,f22,negative).
example(e665,f23,negative).
example(e665,f24,negative).
example(e665,f25,positive).
example(e665,f26,negative).
example(e665,f27,negative).
example(e665,f28,negative).
example(e665,f29,negative).
example(e665,f30,negative).
example(e665,f31,negative).
example(e665,f32,negative).
example(e665,f33,positive).
example(e665,f34,negative).
example(e666,f1,negative).
example(e666,f2,negative).
example(e666,f3,negative).
example(e666,f4,positive).
example(e666,f5,negative).
example(e666,f6,positive).
example(e666,f7,positive).
example(e666,f8,negative).
example(e666,f9,negative).
example(e666,f10,negative).
example(e666,f11,negative).
example(e666,f12,negative).
example(e666,f13,negative).
example(e666,f14,negative).
example(e666,f15,negative).
example(e666,f16,positive).
example(e666,f17,negative).
example(e666,f18,negative).
example(e666,f19,negative).
example(e666,f20,negative).
example(e666,f21,negative).
example(e666,f22,negative).
example(e666,f23,negative).
example(e666,f24,negative).
example(e666,f25,positive).
example(e666,f26,negative).
example(e666,f27,negative).
example(e666,f28,negative).
example(e666,f29,negative).
example(e666,f30,negative).
example(e666,f31,negative).
example(e666,f32,positive).
example(e666,f33,positive).
example(e666,f34,negative).
example(e667,f1,negative).
example(e667,f2,negative).
example(e667,f3,negative).
example(e667,f4,positive).
example(e667,f5,negative).
example(e667,f6,negative).
example(e667,f7,positive).
example(e667,f8,negative).
example(e667,f9,negative).
example(e667,f10,negative).
example(e667,f11,negative).
example(e667,f12,negative).
example(e667,f13,negative).
example(e667,f14,negative).
example(e667,f15,negative).
example(e667,f16,negative).
example(e667,f17,negative).
example(e667,f18,negative).
example(e667,f19,negative).
example(e667,f20,negative).
example(e667,f21,positive).
example(e667,f22,negative).
example(e667,f23,negative).
example(e667,f24,negative).
example(e667,f25,negative).
example(e667,f26,positive).
example(e667,f27,negative).
example(e667,f28,negative).
example(e667,f29,negative).
example(e667,f30,negative).
example(e667,f31,negative).
example(e667,f32,negative).
example(e667,f33,positive).
example(e667,f34,negative).
example(e668,f1,negative).
example(e668,f2,negative).
example(e668,f3,positive).
example(e668,f4,positive).
example(e668,f5,negative).
example(e668,f6,positive).
example(e668,f7,negative).
example(e668,f8,positive).
example(e668,f9,negative).
example(e668,f10,negative).
example(e668,f11,negative).
example(e668,f12,negative).
example(e668,f13,negative).
example(e668,f14,negative).
example(e668,f15,negative).
example(e668,f16,negative).
example(e668,f17,negative).
example(e668,f18,negative).
example(e668,f19,negative).
example(e668,f20,negative).
example(e668,f21,negative).
example(e668,f22,negative).
example(e668,f23,negative).
example(e668,f24,negative).
example(e668,f25,negative).
example(e668,f26,negative).
example(e668,f27,negative).
example(e668,f28,negative).
example(e668,f29,negative).
example(e668,f30,positive).
example(e668,f31,negative).
example(e668,f32,negative).
example(e668,f33,positive).
example(e668,f34,negative).
example(e669,f1,negative).
example(e669,f2,negative).
example(e669,f3,negative).
example(e669,f4,positive).
example(e669,f5,negative).
example(e669,f6,negative).
example(e669,f7,negative).
example(e669,f8,positive).
example(e669,f9,negative).
example(e669,f10,negative).
example(e669,f11,negative).
example(e669,f12,negative).
example(e669,f13,negative).
example(e669,f14,negative).
example(e669,f15,negative).
example(e669,f16,negative).
example(e669,f17,negative).
example(e669,f18,negative).
example(e669,f19,negative).
example(e669,f20,negative).
example(e669,f21,positive).
example(e669,f22,negative).
example(e669,f23,negative).
example(e669,f24,negative).
example(e669,f25,positive).
example(e669,f26,negative).
example(e669,f27,negative).
example(e669,f28,negative).
example(e669,f29,negative).
example(e669,f30,negative).
example(e669,f31,negative).
example(e669,f32,positive).
example(e669,f33,positive).
example(e669,f34,negative).
example(e670,f1,negative).
example(e670,f2,negative).
example(e670,f3,negative).
example(e670,f4,positive).
example(e670,f5,negative).
example(e670,f6,positive).
example(e670,f7,positive).
example(e670,f8,positive).
example(e670,f9,negative).
example(e670,f10,negative).
example(e670,f11,negative).
example(e670,f12,negative).
example(e670,f13,negative).
example(e670,f14,negative).
example(e670,f15,negative).
example(e670,f16,negative).
example(e670,f17,negative).
example(e670,f18,negative).
example(e670,f19,negative).
example(e670,f20,negative).
example(e670,f21,positive).
example(e670,f22,negative).
example(e670,f23,negative).
example(e670,f24,negative).
example(e670,f25,positive).
example(e670,f26,negative).
example(e670,f27,negative).
example(e670,f28,negative).
example(e670,f29,negative).
example(e670,f30,negative).
example(e670,f31,negative).
example(e670,f32,negative).
example(e670,f33,negative).
example(e670,f34,negative).
example(e671,f1,negative).
example(e671,f2,negative).
example(e671,f3,negative).
example(e671,f4,positive).
example(e671,f5,negative).
example(e671,f6,positive).
example(e671,f7,negative).
example(e671,f8,positive).
example(e671,f9,negative).
example(e671,f10,negative).
example(e671,f11,positive).
example(e671,f12,negative).
example(e671,f13,negative).
example(e671,f14,negative).
example(e671,f15,negative).
example(e671,f16,negative).
example(e671,f17,negative).
example(e671,f18,negative).
example(e671,f19,negative).
example(e671,f20,negative).
example(e671,f21,negative).
example(e671,f22,negative).
example(e671,f23,negative).
example(e671,f24,negative).
example(e671,f25,positive).
example(e671,f26,negative).
example(e671,f27,negative).
example(e671,f28,negative).
example(e671,f29,negative).
example(e671,f30,positive).
example(e671,f31,negative).
example(e671,f32,positive).
example(e671,f33,positive).
example(e671,f34,negative).
example(e672,f1,negative).
example(e672,f2,negative).
example(e672,f3,negative).
example(e672,f4,positive).
example(e672,f5,positive).
example(e672,f6,positive).
example(e672,f7,positive).
example(e672,f8,negative).
example(e672,f9,negative).
example(e672,f10,negative).
example(e672,f11,negative).
example(e672,f12,negative).
example(e672,f13,negative).
example(e672,f14,negative).
example(e672,f15,negative).
example(e672,f16,negative).
example(e672,f17,negative).
example(e672,f18,negative).
example(e672,f19,negative).
example(e672,f20,negative).
example(e672,f21,positive).
example(e672,f22,negative).
example(e672,f23,negative).
example(e672,f24,negative).
example(e672,f25,negative).
example(e672,f26,negative).
example(e672,f27,negative).
example(e672,f28,positive).
example(e672,f29,negative).
example(e672,f30,positive).
example(e672,f31,negative).
example(e672,f32,negative).
example(e672,f33,positive).
example(e672,f34,negative).
example(e673,f1,negative).
example(e673,f2,negative).
example(e673,f3,positive).
example(e673,f4,positive).
example(e673,f5,positive).
example(e673,f6,negative).
example(e673,f7,negative).
example(e673,f8,positive).
example(e673,f9,negative).
example(e673,f10,negative).
example(e673,f11,negative).
example(e673,f12,negative).
example(e673,f13,negative).
example(e673,f14,negative).
example(e673,f15,negative).
example(e673,f16,negative).
example(e673,f17,negative).
example(e673,f18,negative).
example(e673,f19,negative).
example(e673,f20,negative).
example(e673,f21,negative).
example(e673,f22,negative).
example(e673,f23,negative).
example(e673,f24,negative).
example(e673,f25,negative).
example(e673,f26,negative).
example(e673,f27,negative).
example(e673,f28,negative).
example(e673,f29,negative).
example(e673,f30,negative).
example(e673,f31,negative).
example(e673,f32,negative).
example(e673,f33,positive).
example(e673,f34,negative).
example(e674,f1,negative).
example(e674,f2,negative).
example(e674,f3,negative).
example(e674,f4,positive).
example(e674,f5,negative).
example(e674,f6,positive).
example(e674,f7,positive).
example(e674,f8,positive).
example(e674,f9,negative).
example(e674,f10,negative).
example(e674,f11,positive).
example(e674,f12,negative).
example(e674,f13,negative).
example(e674,f14,negative).
example(e674,f15,negative).
example(e674,f16,negative).
example(e674,f17,negative).
example(e674,f18,negative).
example(e674,f19,negative).
example(e674,f20,negative).
example(e674,f21,negative).
example(e674,f22,negative).
example(e674,f23,negative).
example(e674,f24,negative).
example(e674,f25,negative).
example(e674,f26,negative).
example(e674,f27,negative).
example(e674,f28,positive).
example(e674,f29,negative).
example(e674,f30,positive).
example(e674,f31,negative).
example(e674,f32,positive).
example(e674,f33,positive).
example(e674,f34,negative).
example(e675,f1,negative).
example(e675,f2,negative).
example(e675,f3,negative).
example(e675,f4,positive).
example(e675,f5,negative).
example(e675,f6,positive).
example(e675,f7,negative).
example(e675,f8,positive).
example(e675,f9,negative).
example(e675,f10,negative).
example(e675,f11,negative).
example(e675,f12,negative).
example(e675,f13,negative).
example(e675,f14,negative).
example(e675,f15,negative).
example(e675,f16,negative).
example(e675,f17,negative).
example(e675,f18,negative).
example(e675,f19,negative).
example(e675,f20,negative).
example(e675,f21,positive).
example(e675,f22,negative).
example(e675,f23,negative).
example(e675,f24,negative).
example(e675,f25,negative).
example(e675,f26,negative).
example(e675,f27,negative).
example(e675,f28,positive).
example(e675,f29,negative).
example(e675,f30,positive).
example(e675,f31,negative).
example(e675,f32,positive).
example(e675,f33,positive).
example(e675,f34,negative).
example(e676,f1,negative).
example(e676,f2,negative).
example(e676,f3,negative).
example(e676,f4,positive).
example(e676,f5,positive).
example(e676,f6,negative).
example(e676,f7,positive).
example(e676,f8,negative).
example(e676,f9,negative).
example(e676,f10,negative).
example(e676,f11,negative).
example(e676,f12,negative).
example(e676,f13,negative).
example(e676,f14,negative).
example(e676,f15,negative).
example(e676,f16,negative).
example(e676,f17,positive).
example(e676,f18,negative).
example(e676,f19,negative).
example(e676,f20,negative).
example(e676,f21,negative).
example(e676,f22,negative).
example(e676,f23,negative).
example(e676,f24,negative).
example(e676,f25,negative).
example(e676,f26,negative).
example(e676,f27,negative).
example(e676,f28,positive).
example(e676,f29,negative).
example(e676,f30,negative).
example(e676,f31,negative).
example(e676,f32,positive).
example(e676,f33,positive).
example(e676,f34,negative).
example(e677,f1,negative).
example(e677,f2,negative).
example(e677,f3,negative).
example(e677,f4,positive).
example(e677,f5,negative).
example(e677,f6,negative).
example(e677,f7,negative).
example(e677,f8,positive).
example(e677,f9,negative).
example(e677,f10,negative).
example(e677,f11,negative).
example(e677,f12,negative).
example(e677,f13,negative).
example(e677,f14,negative).
example(e677,f15,negative).
example(e677,f16,negative).
example(e677,f17,negative).
example(e677,f18,negative).
example(e677,f19,positive).
example(e677,f20,negative).
example(e677,f21,negative).
example(e677,f22,negative).
example(e677,f23,negative).
example(e677,f24,negative).
example(e677,f25,positive).
example(e677,f26,negative).
example(e677,f27,negative).
example(e677,f28,negative).
example(e677,f29,negative).
example(e677,f30,negative).
example(e677,f31,negative).
example(e677,f32,negative).
example(e677,f33,positive).
example(e677,f34,negative).
example(e678,f1,negative).
example(e678,f2,negative).
example(e678,f3,negative).
example(e678,f4,positive).
example(e678,f5,negative).
example(e678,f6,positive).
example(e678,f7,positive).
example(e678,f8,positive).
example(e678,f9,negative).
example(e678,f10,negative).
example(e678,f11,negative).
example(e678,f12,negative).
example(e678,f13,negative).
example(e678,f14,negative).
example(e678,f15,negative).
example(e678,f16,negative).
example(e678,f17,negative).
example(e678,f18,negative).
example(e678,f19,negative).
example(e678,f20,positive).
example(e678,f21,negative).
example(e678,f22,negative).
example(e678,f23,negative).
example(e678,f24,negative).
example(e678,f25,positive).
example(e678,f26,negative).
example(e678,f27,negative).
example(e678,f28,negative).
example(e678,f29,negative).
example(e678,f30,positive).
example(e678,f31,negative).
example(e678,f32,positive).
example(e678,f33,negative).
example(e678,f34,negative).
example(e679,f1,negative).
example(e679,f2,negative).
example(e679,f3,negative).
example(e679,f4,positive).
example(e679,f5,negative).
example(e679,f6,positive).
example(e679,f7,positive).
example(e679,f8,negative).
example(e679,f9,negative).
example(e679,f10,negative).
example(e679,f11,negative).
example(e679,f12,negative).
example(e679,f13,negative).
example(e679,f14,negative).
example(e679,f15,negative).
example(e679,f16,negative).
example(e679,f17,negative).
example(e679,f18,negative).
example(e679,f19,negative).
example(e679,f20,negative).
example(e679,f21,positive).
example(e679,f22,negative).
example(e679,f23,negative).
example(e679,f24,negative).
example(e679,f25,positive).
example(e679,f26,negative).
example(e679,f27,negative).
example(e679,f28,negative).
example(e679,f29,negative).
example(e679,f30,negative).
example(e679,f31,negative).
example(e679,f32,positive).
example(e679,f33,positive).
example(e679,f34,negative).
example(e680,f1,negative).
example(e680,f2,negative).
example(e680,f3,negative).
example(e680,f4,negative).
example(e680,f5,negative).
example(e680,f6,negative).
example(e680,f7,positive).
example(e680,f8,negative).
example(e680,f9,negative).
example(e680,f10,negative).
example(e680,f11,negative).
example(e680,f12,negative).
example(e680,f13,negative).
example(e680,f14,negative).
example(e680,f15,negative).
example(e680,f16,negative).
example(e680,f17,positive).
example(e680,f18,negative).
example(e680,f19,negative).
example(e680,f20,negative).
example(e680,f21,negative).
example(e680,f22,negative).
example(e680,f23,negative).
example(e680,f24,negative).
example(e680,f25,positive).
example(e680,f26,negative).
example(e680,f27,negative).
example(e680,f28,negative).
example(e680,f29,negative).
example(e680,f30,positive).
example(e680,f31,positive).
example(e680,f32,negative).
example(e680,f33,positive).
example(e680,f34,negative).
example(e681,f1,negative).
example(e681,f2,positive).
example(e681,f3,negative).
example(e681,f4,positive).
example(e681,f5,positive).
example(e681,f6,positive).
example(e681,f7,positive).
example(e681,f8,positive).
example(e681,f9,negative).
example(e681,f10,negative).
example(e681,f11,negative).
example(e681,f12,negative).
example(e681,f13,negative).
example(e681,f14,negative).
example(e681,f15,negative).
example(e681,f16,negative).
example(e681,f17,negative).
example(e681,f18,negative).
example(e681,f19,negative).
example(e681,f20,negative).
example(e681,f21,positive).
example(e681,f22,negative).
example(e681,f23,negative).
example(e681,f24,negative).
example(e681,f25,positive).
example(e681,f26,negative).
example(e681,f27,negative).
example(e681,f28,negative).
example(e681,f29,negative).
example(e681,f30,negative).
example(e681,f31,negative).
example(e681,f32,positive).
example(e681,f33,negative).
example(e681,f34,negative).
example(e682,f1,negative).
example(e682,f2,negative).
example(e682,f3,negative).
example(e682,f4,positive).
example(e682,f5,negative).
example(e682,f6,positive).
example(e682,f7,positive).
example(e682,f8,negative).
example(e682,f9,negative).
example(e682,f10,negative).
example(e682,f11,negative).
example(e682,f12,negative).
example(e682,f13,negative).
example(e682,f14,negative).
example(e682,f15,negative).
example(e682,f16,negative).
example(e682,f17,negative).
example(e682,f18,negative).
example(e682,f19,negative).
example(e682,f20,negative).
example(e682,f21,positive).
example(e682,f22,negative).
example(e682,f23,negative).
example(e682,f24,negative).
example(e682,f25,positive).
example(e682,f26,negative).
example(e682,f27,negative).
example(e682,f28,negative).
example(e682,f29,negative).
example(e682,f30,positive).
example(e682,f31,negative).
example(e682,f32,negative).
example(e682,f33,positive).
example(e682,f34,negative).
example(e683,f1,negative).
example(e683,f2,negative).
example(e683,f3,negative).
example(e683,f4,positive).
example(e683,f5,negative).
example(e683,f6,negative).
example(e683,f7,negative).
example(e683,f8,positive).
example(e683,f9,negative).
example(e683,f10,negative).
example(e683,f11,negative).
example(e683,f12,negative).
example(e683,f13,positive).
example(e683,f14,negative).
example(e683,f15,negative).
example(e683,f16,negative).
example(e683,f17,negative).
example(e683,f18,negative).
example(e683,f19,negative).
example(e683,f20,negative).
example(e683,f21,negative).
example(e683,f22,negative).
example(e683,f23,negative).
example(e683,f24,negative).
example(e683,f25,positive).
example(e683,f26,negative).
example(e683,f27,negative).
example(e683,f28,negative).
example(e683,f29,negative).
example(e683,f30,positive).
example(e683,f31,negative).
example(e683,f32,negative).
example(e683,f33,positive).
example(e683,f34,negative).
example(e684,f1,negative).
example(e684,f2,negative).
example(e684,f3,negative).
example(e684,f4,positive).
example(e684,f5,positive).
example(e684,f6,negative).
example(e684,f7,negative).
example(e684,f8,positive).
example(e684,f9,negative).
example(e684,f10,negative).
example(e684,f11,negative).
example(e684,f12,negative).
example(e684,f13,negative).
example(e684,f14,negative).
example(e684,f15,negative).
example(e684,f16,positive).
example(e684,f17,negative).
example(e684,f18,negative).
example(e684,f19,negative).
example(e684,f20,negative).
example(e684,f21,negative).
example(e684,f22,negative).
example(e684,f23,negative).
example(e684,f24,negative).
example(e684,f25,negative).
example(e684,f26,negative).
example(e684,f27,positive).
example(e684,f28,negative).
example(e684,f29,negative).
example(e684,f30,negative).
example(e684,f31,negative).
example(e684,f32,negative).
example(e684,f33,positive).
example(e684,f34,negative).
example(e685,f1,negative).
example(e685,f2,negative).
example(e685,f3,negative).
example(e685,f4,negative).
example(e685,f5,negative).
example(e685,f6,negative).
example(e685,f7,positive).
example(e685,f8,negative).
example(e685,f9,negative).
example(e685,f10,negative).
example(e685,f11,negative).
example(e685,f12,negative).
example(e685,f13,positive).
example(e685,f14,negative).
example(e685,f15,negative).
example(e685,f16,negative).
example(e685,f17,negative).
example(e685,f18,negative).
example(e685,f19,negative).
example(e685,f20,negative).
example(e685,f21,negative).
example(e685,f22,negative).
example(e685,f23,negative).
example(e685,f24,negative).
example(e685,f25,negative).
example(e685,f26,negative).
example(e685,f27,negative).
example(e685,f28,positive).
example(e685,f29,negative).
example(e685,f30,positive).
example(e685,f31,positive).
example(e685,f32,negative).
example(e685,f33,positive).
example(e685,f34,negative).
example(e686,f1,negative).
example(e686,f2,negative).
example(e686,f3,negative).
example(e686,f4,positive).
example(e686,f5,positive).
example(e686,f6,positive).
example(e686,f7,positive).
example(e686,f8,positive).
example(e686,f9,negative).
example(e686,f10,negative).
example(e686,f11,negative).
example(e686,f12,negative).
example(e686,f13,negative).
example(e686,f14,positive).
example(e686,f15,negative).
example(e686,f16,negative).
example(e686,f17,negative).
example(e686,f18,negative).
example(e686,f19,negative).
example(e686,f20,negative).
example(e686,f21,negative).
example(e686,f22,negative).
example(e686,f23,negative).
example(e686,f24,negative).
example(e686,f25,positive).
example(e686,f26,negative).
example(e686,f27,negative).
example(e686,f28,negative).
example(e686,f29,negative).
example(e686,f30,positive).
example(e686,f31,negative).
example(e686,f32,negative).
example(e686,f33,positive).
example(e686,f34,negative).
example(e687,f1,negative).
example(e687,f2,negative).
example(e687,f3,negative).
example(e687,f4,positive).
example(e687,f5,positive).
example(e687,f6,negative).
example(e687,f7,positive).
example(e687,f8,positive).
example(e687,f9,negative).
example(e687,f10,negative).
example(e687,f11,negative).
example(e687,f12,negative).
example(e687,f13,negative).
example(e687,f14,negative).
example(e687,f15,negative).
example(e687,f16,negative).
example(e687,f17,negative).
example(e687,f18,negative).
example(e687,f19,negative).
example(e687,f20,negative).
example(e687,f21,positive).
example(e687,f22,negative).
example(e687,f23,negative).
example(e687,f24,negative).
example(e687,f25,positive).
example(e687,f26,negative).
example(e687,f27,negative).
example(e687,f28,negative).
example(e687,f29,negative).
example(e687,f30,negative).
example(e687,f31,negative).
example(e687,f32,negative).
example(e687,f33,positive).
example(e687,f34,negative).
example(e688,f1,negative).
example(e688,f2,negative).
example(e688,f3,negative).
example(e688,f4,positive).
example(e688,f5,negative).
example(e688,f6,positive).
example(e688,f7,negative).
example(e688,f8,positive).
example(e688,f9,negative).
example(e688,f10,negative).
example(e688,f11,negative).
example(e688,f12,negative).
example(e688,f13,negative).
example(e688,f14,negative).
example(e688,f15,negative).
example(e688,f16,negative).
example(e688,f17,negative).
example(e688,f18,negative).
example(e688,f19,positive).
example(e688,f20,negative).
example(e688,f21,negative).
example(e688,f22,negative).
example(e688,f23,negative).
example(e688,f24,negative).
example(e688,f25,positive).
example(e688,f26,negative).
example(e688,f27,negative).
example(e688,f28,negative).
example(e688,f29,negative).
example(e688,f30,positive).
example(e688,f31,negative).
example(e688,f32,negative).
example(e688,f33,positive).
example(e688,f34,negative).
example(e689,f1,negative).
example(e689,f2,negative).
example(e689,f3,negative).
example(e689,f4,negative).
example(e689,f5,negative).
example(e689,f6,negative).
example(e689,f7,negative).
example(e689,f8,positive).
example(e689,f9,negative).
example(e689,f10,negative).
example(e689,f11,negative).
example(e689,f12,negative).
example(e689,f13,negative).
example(e689,f14,positive).
example(e689,f15,negative).
example(e689,f16,negative).
example(e689,f17,negative).
example(e689,f18,negative).
example(e689,f19,negative).
example(e689,f20,negative).
example(e689,f21,negative).
example(e689,f22,negative).
example(e689,f23,negative).
example(e689,f24,negative).
example(e689,f25,negative).
example(e689,f26,negative).
example(e689,f27,negative).
example(e689,f28,positive).
example(e689,f29,negative).
example(e689,f30,positive).
example(e689,f31,positive).
example(e689,f32,negative).
example(e689,f33,positive).
example(e689,f34,negative).
example(e690,f1,negative).
example(e690,f2,negative).
example(e690,f3,negative).
example(e690,f4,negative).
example(e690,f5,negative).
example(e690,f6,positive).
example(e690,f7,positive).
example(e690,f8,positive).
example(e690,f9,negative).
example(e690,f10,positive).
example(e690,f11,negative).
example(e690,f12,negative).
example(e690,f13,negative).
example(e690,f14,negative).
example(e690,f15,negative).
example(e690,f16,negative).
example(e690,f17,negative).
example(e690,f18,negative).
example(e690,f19,negative).
example(e690,f20,negative).
example(e690,f21,negative).
example(e690,f22,negative).
example(e690,f23,negative).
example(e690,f24,negative).
example(e690,f25,positive).
example(e690,f26,negative).
example(e690,f27,negative).
example(e690,f28,negative).
example(e690,f29,negative).
example(e690,f30,negative).
example(e690,f31,positive).
example(e690,f32,negative).
example(e690,f33,negative).
example(e690,f34,negative).
target(e1,negative).
target(e2,negative).
target(e3,negative).
target(e4,positive).
target(e5,positive).
target(e6,positive).
target(e7,negative).
target(e8,positive).
target(e9,negative).
target(e10,negative).
target(e11,positive).
target(e12,positive).
target(e13,negative).
target(e14,positive).
target(e15,negative).
target(e16,positive).
target(e17,positive).
target(e18,positive).
target(e19,negative).
target(e20,positive).
target(e21,negative).
target(e22,negative).
target(e23,negative).
target(e24,negative).
target(e25,negative).
target(e26,positive).
target(e27,negative).
target(e28,positive).
target(e29,positive).
target(e30,positive).
target(e31,positive).
target(e32,negative).
target(e33,negative).
target(e34,positive).
target(e35,negative).
target(e36,negative).
target(e37,positive).
target(e38,positive).
target(e39,positive).
target(e40,positive).
target(e41,positive).
target(e42,negative).
target(e43,positive).
target(e44,negative).
target(e45,negative).
target(e46,positive).
target(e47,negative).
target(e48,positive).
target(e49,negative).
target(e50,positive).
target(e51,negative).
target(e52,negative).
target(e53,negative).
target(e54,negative).
target(e55,negative).
target(e56,positive).
target(e57,positive).
target(e58,negative).
target(e59,positive).
target(e60,positive).
target(e61,negative).
target(e62,negative).
target(e63,positive).
target(e64,negative).
target(e65,positive).
target(e66,positive).
target(e67,negative).
target(e68,negative).
target(e69,negative).
target(e70,positive).
target(e71,negative).
target(e72,negative).
target(e73,negative).
target(e74,positive).
target(e75,positive).
target(e76,negative).
target(e77,negative).
target(e78,negative).
target(e79,negative).
target(e80,positive).
target(e81,positive).
target(e82,negative).
target(e83,negative).
target(e84,negative).
target(e85,negative).
target(e86,positive).
target(e87,negative).
target(e88,positive).
target(e89,positive).
target(e90,negative).
target(e91,negative).
target(e92,negative).
target(e93,negative).
target(e94,positive).
target(e95,negative).
target(e96,positive).
target(e97,negative).
target(e98,negative).
target(e99,negative).
target(e100,positive).
target(e101,negative).
target(e102,positive).
target(e103,positive).
target(e104,positive).
target(e105,negative).
target(e106,positive).
target(e107,positive).
target(e108,negative).
target(e109,positive).
target(e110,negative).
target(e111,negative).
target(e112,negative).
target(e113,negative).
target(e114,positive).
target(e115,negative).
target(e116,positive).
target(e117,positive).
target(e118,positive).
target(e119,positive).
target(e120,positive).
target(e121,positive).
target(e122,negative).
target(e123,negative).
target(e124,positive).
target(e125,positive).
target(e126,negative).
target(e127,positive).
target(e128,negative).
target(e129,positive).
target(e130,positive).
target(e131,positive).
target(e132,negative).
target(e133,negative).
target(e134,negative).
target(e135,negative).
target(e136,negative).
target(e137,negative).
target(e138,positive).
target(e139,positive).
target(e140,positive).
target(e141,negative).
target(e142,negative).
target(e143,negative).
target(e144,positive).
target(e145,negative).
target(e146,positive).
target(e147,positive).
target(e148,negative).
target(e149,negative).
target(e150,positive).
target(e151,positive).
target(e152,negative).
target(e153,negative).
target(e154,negative).
target(e155,positive).
target(e156,positive).
target(e157,positive).
target(e158,negative).
target(e159,positive).
target(e160,negative).
target(e161,negative).
target(e162,negative).
target(e163,positive).
target(e164,positive).
target(e165,negative).
target(e166,negative).
target(e167,negative).
target(e168,positive).
target(e169,negative).
target(e170,negative).
target(e171,negative).
target(e172,positive).
target(e173,negative).
target(e174,negative).
target(e175,positive).
target(e176,negative).
target(e177,negative).
target(e178,negative).
target(e179,positive).
target(e180,positive).
target(e181,negative).
target(e182,negative).
target(e183,positive).
target(e184,positive).
target(e185,positive).
target(e186,negative).
target(e187,negative).
target(e188,negative).
target(e189,negative).
target(e190,negative).
target(e191,negative).
target(e192,positive).
target(e193,negative).
target(e194,negative).
target(e195,negative).
target(e196,positive).
target(e197,positive).
target(e198,negative).
target(e199,negative).
target(e200,negative).
target(e201,positive).
target(e202,negative).
target(e203,positive).
target(e204,negative).
target(e205,positive).
target(e206,positive).
target(e207,negative).
target(e208,negative).
target(e209,negative).
target(e210,negative).
target(e211,positive).
target(e212,positive).
target(e213,negative).
target(e214,negative).
target(e215,negative).
target(e216,positive).
target(e217,negative).
target(e218,negative).
target(e219,negative).
target(e220,positive).
target(e221,positive).
target(e222,negative).
target(e223,positive).
target(e224,negative).
target(e225,negative).
target(e226,negative).
target(e227,negative).
target(e228,positive).
target(e229,positive).
target(e230,positive).
target(e231,positive).
target(e232,negative).
target(e233,negative).
target(e234,positive).
target(e235,positive).
target(e236,positive).
target(e237,negative).
target(e238,negative).
target(e239,negative).
target(e240,positive).
target(e241,positive).
target(e242,positive).
target(e243,positive).
target(e244,negative).
target(e245,negative).
target(e246,negative).
target(e247,negative).
target(e248,positive).
target(e249,positive).
target(e250,positive).
target(e251,negative).
target(e252,negative).
target(e253,positive).
target(e254,negative).
target(e255,positive).
target(e256,positive).
target(e257,positive).
target(e258,positive).
target(e259,negative).
target(e260,negative).
target(e261,negative).
target(e262,positive).
target(e263,negative).
target(e264,positive).
target(e265,positive).
target(e266,negative).
target(e267,negative).
target(e268,positive).
target(e269,negative).
target(e270,negative).
target(e271,negative).
target(e272,positive).
target(e273,negative).
target(e274,positive).
target(e275,positive).
target(e276,negative).
target(e277,negative).
target(e278,negative).
target(e279,positive).
target(e280,positive).
target(e281,negative).
target(e282,negative).
target(e283,negative).
target(e284,negative).
target(e285,negative).
target(e286,positive).
target(e287,positive).
target(e288,positive).
target(e289,negative).
target(e290,negative).
target(e291,negative).
target(e292,negative).
target(e293,positive).
target(e294,positive).
target(e295,positive).
target(e296,negative).
target(e297,negative).
target(e298,negative).
target(e299,positive).
target(e300,negative).
target(e301,positive).
target(e302,negative).
target(e303,negative).
target(e304,negative).
target(e305,negative).
target(e306,positive).
target(e307,negative).
target(e308,positive).
target(e309,negative).
target(e310,negative).
target(e311,negative).
target(e312,negative).
target(e313,negative).
target(e314,positive).
target(e315,positive).
target(e316,negative).
target(e317,negative).
target(e318,positive).
target(e319,negative).
target(e320,positive).
target(e321,positive).
target(e322,positive).
target(e323,positive).
target(e324,positive).
target(e325,positive).
target(e326,positive).
target(e327,negative).
target(e328,negative).
target(e329,negative).
target(e330,negative).
target(e331,positive).
target(e332,positive).
target(e333,positive).
target(e334,negative).
target(e335,negative).
target(e336,negative).
target(e337,positive).
target(e338,negative).
target(e339,positive).
target(e340,negative).
target(e341,negative).
target(e342,negative).
target(e343,positive).
target(e344,positive).
target(e345,positive).
target(e346,positive).
target(e347,positive).
target(e348,positive).
target(e349,positive).
target(e350,negative).
target(e351,positive).
target(e352,negative).
target(e353,positive).
target(e354,negative).
target(e355,negative).
target(e356,negative).
target(e357,negative).
target(e358,negative).
target(e359,positive).
target(e360,negative).
target(e361,positive).
target(e362,positive).
target(e363,negative).
target(e364,negative).
target(e365,negative).
target(e366,negative).
target(e367,negative).
target(e368,positive).
target(e369,negative).
target(e370,positive).
target(e371,positive).
target(e372,negative).
target(e373,negative).
target(e374,negative).
target(e375,positive).
target(e376,positive).
target(e377,positive).
target(e378,negative).
target(e379,negative).
target(e380,positive).
target(e381,positive).
target(e382,negative).
target(e383,negative).
target(e384,negative).
target(e385,positive).
target(e386,positive).
target(e387,negative).
target(e388,positive).
target(e389,positive).
target(e390,positive).
target(e391,positive).
target(e392,negative).
target(e393,negative).
target(e394,positive).
target(e395,positive).
target(e396,negative).
target(e397,negative).
target(e398,negative).
target(e399,negative).
target(e400,negative).
target(e401,negative).
target(e402,positive).
target(e403,negative).
target(e404,negative).
target(e405,negative).
target(e406,positive).
target(e407,positive).
target(e408,negative).
target(e409,positive).
target(e410,negative).
target(e411,negative).
target(e412,negative).
target(e413,positive).
target(e414,positive).
target(e415,positive).
target(e416,negative).
target(e417,negative).
target(e418,positive).
target(e419,negative).
target(e420,positive).
target(e421,positive).
target(e422,positive).
target(e423,negative).
target(e424,positive).
target(e425,negative).
target(e426,negative).
target(e427,positive).
target(e428,negative).
target(e429,negative).
target(e430,negative).
target(e431,positive).
target(e432,negative).
target(e433,negative).
target(e434,positive).
target(e435,negative).
target(e436,positive).
target(e437,negative).
target(e438,positive).
target(e439,positive).
target(e440,negative).
target(e441,positive).
target(e442,negative).
target(e443,negative).
target(e444,positive).
target(e445,negative).
target(e446,positive).
target(e447,positive).
target(e448,negative).
target(e449,negative).
target(e450,negative).
target(e451,negative).
target(e452,negative).
target(e453,positive).
target(e454,positive).
target(e455,negative).
target(e456,negative).
target(e457,positive).
target(e458,positive).
target(e459,negative).
target(e460,positive).
target(e461,negative).
target(e462,positive).
target(e463,negative).
target(e464,positive).
target(e465,negative).
target(e466,positive).
target(e467,positive).
target(e468,negative).
target(e469,positive).
target(e470,negative).
target(e471,positive).
target(e472,positive).
target(e473,positive).
target(e474,negative).
target(e475,negative).
target(e476,negative).
target(e477,negative).
target(e478,negative).
target(e479,positive).
target(e480,negative).
target(e481,positive).
target(e482,negative).
target(e483,negative).
target(e484,negative).
target(e485,positive).
target(e486,positive).
target(e487,positive).
target(e488,positive).
target(e489,positive).
target(e490,negative).
target(e491,positive).
target(e492,positive).
target(e493,negative).
target(e494,negative).
target(e495,negative).
target(e496,positive).
target(e497,positive).
target(e498,positive).
target(e499,positive).
target(e500,positive).
target(e501,positive).
target(e502,negative).
target(e503,positive).
target(e504,positive).
target(e505,positive).
target(e506,positive).
target(e507,negative).
target(e508,negative).
target(e509,negative).
target(e510,negative).
target(e511,negative).
target(e512,negative).
target(e513,negative).
target(e514,positive).
target(e515,negative).
target(e516,negative).
target(e517,positive).
target(e518,positive).
target(e519,positive).
target(e520,negative).
target(e521,positive).
target(e522,negative).
target(e523,negative).
target(e524,positive).
target(e525,positive).
target(e526,negative).
target(e527,positive).
target(e528,negative).
target(e529,negative).
target(e530,negative).
target(e531,negative).
target(e532,negative).
target(e533,negative).
target(e534,positive).
target(e535,negative).
target(e536,positive).
target(e537,negative).
target(e538,positive).
target(e539,positive).
target(e540,positive).
target(e541,negative).
target(e542,negative).
target(e543,positive).
target(e544,negative).
target(e545,negative).
target(e546,negative).
target(e547,negative).
target(e548,negative).
target(e549,negative).
target(e550,negative).
target(e551,positive).
target(e552,positive).
target(e553,negative).
target(e554,negative).
target(e555,negative).
target(e556,negative).
target(e557,negative).
target(e558,positive).
target(e559,negative).
target(e560,positive).
target(e561,negative).
target(e562,positive).
target(e563,negative).
target(e564,negative).
target(e565,positive).
target(e566,positive).
target(e567,positive).
target(e568,negative).
target(e569,negative).
target(e570,negative).
target(e571,negative).
target(e572,negative).
target(e573,positive).
target(e574,negative).
target(e575,positive).
target(e576,positive).
target(e577,negative).
target(e578,negative).
target(e579,negative).
target(e580,negative).
target(e581,negative).
target(e582,positive).
target(e583,positive).
target(e584,positive).
target(e585,negative).
target(e586,positive).
target(e587,negative).
target(e588,positive).
target(e589,positive).
target(e590,negative).
target(e591,negative).
target(e592,positive).
target(e593,negative).
target(e594,positive).
target(e595,negative).
target(e596,negative).
target(e597,positive).
target(e598,positive).
target(e599,negative).
target(e600,positive).
target(e601,negative).
target(e602,positive).
target(e603,positive).
target(e604,positive).
target(e605,positive).
target(e606,negative).
target(e607,negative).
target(e608,positive).
target(e609,negative).
target(e610,positive).
target(e611,positive).
target(e612,negative).
target(e613,positive).
target(e614,negative).
target(e615,positive).
target(e616,positive).
target(e617,negative).
target(e618,negative).
target(e619,negative).
target(e620,positive).
target(e621,negative).
target(e622,positive).
target(e623,positive).
target(e624,negative).
target(e625,positive).
target(e626,negative).
target(e627,negative).
target(e628,negative).
target(e629,negative).
target(e630,negative).
target(e631,positive).
target(e632,negative).
target(e633,positive).
target(e634,negative).
target(e635,negative).
target(e636,negative).
target(e637,negative).
target(e638,negative).
target(e639,negative).
target(e640,positive).
target(e641,negative).
target(e642,positive).
target(e643,positive).
target(e644,negative).
target(e645,negative).
target(e646,negative).
target(e647,negative).
target(e648,negative).
target(e649,negative).
target(e650,positive).
target(e651,positive).
target(e652,negative).
target(e653,negative).
target(e654,positive).
target(e655,negative).
target(e656,negative).
target(e657,positive).
target(e658,negative).
target(e659,negative).
target(e660,positive).
target(e661,positive).
target(e662,negative).
target(e663,positive).
target(e664,positive).
target(e665,negative).
target(e666,negative).
target(e667,negative).
target(e668,negative).
target(e669,negative).
target(e670,negative).
target(e671,positive).
target(e672,positive).
target(e673,negative).
target(e674,positive).
target(e675,positive).
target(e676,negative).
target(e677,negative).
target(e678,negative).
target(e679,negative).
target(e680,positive).
target(e681,negative).
target(e682,negative).
target(e683,positive).
target(e684,negative).
target(e685,positive).
target(e686,positive).
target(e687,negative).
target(e688,positive).
target(e689,positive).
target(e690,positive).
feature(f1; f2; f3; f4; f5; f6; f7; f8; f9; f10; f11; f12; f13; f14; f15; f16; f17; f18; f19; f20; f21; f22; f23; f24; f25; f26; f27; f28; f29; f30; f31; f32; f33; f34).
% |--- f30 <= 0.50
% |   |--- f2 <= 6.50
% |   |   |--- f5 <= 59.00
% |   |   |   |--- f1 <= 8.50
% |   |   |   |   |--- class: 1
% |   |   |   |--- f1 >  8.50
% |   |   |   |   |--- f24 <= 0.50
% |   |   |   |   |   |--- class: 0
% |   |   |   |   |--- f24 >  0.50
% |   |   |   |   |   |--- class: 1
% |   |   |--- f5 >  59.00
% |   |   |   |--- f1 <= 204.00
% |   |   |   |   |--- f25 <= 0.50
% |   |   |   |   |   |--- class: 1
% |   |   |   |   |--- f25 >  0.50
% |   |   |   |   |   |--- f5 <= 92.00
% |   |   |   |   |   |   |--- f7 <= 0.50
% |   |   |   |   |   |   |   |--- class: 1
% |   |   |   |   |   |   |--- f7 >  0.50
% |   |   |   |   |   |   |   |--- f2 <= 3.00
% |   |   |   |   |   |   |   |   |--- f1 <= 62.50
% |   |   |   |   |   |   |   |   |   |--- class: 0
% |   |   |   |   |   |   |   |   |--- f1 >  62.50
% |   |   |   |   |   |   |   |   |   |--- f1 <= 136.00
% |   |   |   |   |   |   |   |   |   |   |--- class: 1
% |   |   |   |   |   |   |   |   |   |--- f1 >  136.00
% |   |   |   |   |   |   |   |   |   |   |--- class: 0
% |   |   |   |   |   |   |   |--- f2 >  3.00
% |   |   |   |   |   |   |   |   |--- class: 0
% |   |   |   |   |   |--- f5 >  92.00
% |   |   |   |   |   |   |--- class: 0
% |   |   |   |--- f1 >  204.00
% |   |   |   |   |--- class: 1
% |   |--- f2 >  6.50
% |   |   |--- f9 <= 0.50
% |   |   |   |--- f14 <= 0.50
% |   |   |   |   |--- f1 <= 184.50
% |   |   |   |   |   |--- f2 <= 46.50
% |   |   |   |   |   |   |--- f5 <= 51.00
% |   |   |   |   |   |   |   |--- f5 <= 48.00
% |   |   |   |   |   |   |   |   |--- f3 <= 47.00
% |   |   |   |   |   |   |   |   |   |--- f21 <= 0.50
% |   |   |   |   |   |   |   |   |   |   |--- class: 0
% |   |   |   |   |   |   |   |   |   |--- f21 >  0.50
% |   |   |   |   |   |   |   |   |   |   |--- f1 <= 84.50
% |   |   |   |   |   |   |   |   |   |   |   |--- class: 0
% |   |   |   |   |   |   |   |   |   |   |--- f1 >  84.50
% |   |   |   |   |   |   |   |   |   |   |   |--- truncated branch of depth 2
% |   |   |   |   |   |   |   |   |--- f3 >  47.00
% |   |   |   |   |   |   |   |   |   |--- f6 <= 2.50
% |   |   |   |   |   |   |   |   |   |   |--- class: 1
% |   |   |   |   |   |   |   |   |   |--- f6 >  2.50
% |   |   |   |   |   |   |   |   |   |   |--- class: 0
% |   |   |   |   |   |   |   |--- f5 >  48.00
% |   |   |   |   |   |   |   |   |--- class: 1
% |   |   |   |   |   |   |--- f5 >  51.00
% |   |   |   |   |   |   |   |--- class: 0
% |   |   |   |   |   |--- f2 >  46.50
% |   |   |   |   |   |   |--- class: 0
% |   |   |   |   |--- f1 >  184.50
% |   |   |   |   |   |--- f2 <= 14.00
% |   |   |   |   |   |   |--- f2 <= 12.00
% |   |   |   |   |   |   |   |--- class: 0
% |   |   |   |   |   |   |--- f2 >  12.00
% |   |   |   |   |   |   |   |--- class: 1
% |   |   |   |   |   |--- f2 >  14.00
% |   |   |   |   |   |   |--- f6 <= 173.00
% |   |   |   |   |   |   |   |--- f5 <= 74.50
% |   |   |   |   |   |   |   |   |--- class: 0
% |   |   |   |   |   |   |   |--- f5 >  74.50
% |   |   |   |   |   |   |   |   |--- f5 <= 76.50
% |   |   |   |   |   |   |   |   |   |--- class: 1
% |   |   |   |   |   |   |   |   |--- f5 >  76.50
% |   |   |   |   |   |   |   |   |   |--- f3 <= 3.50
% |   |   |   |   |   |   |   |   |   |   |--- f1 <= 216.00
% |   |   |   |   |   |   |   |   |   |   |   |--- class: 1
% |   |   |   |   |   |   |   |   |   |   |--- f1 >  216.00
% |   |   |   |   |   |   |   |   |   |   |   |--- class: 0
% |   |   |   |   |   |   |   |   |   |--- f3 >  3.50
% |   |   |   |   |   |   |   |   |   |   |--- f15 <= 0.50
% |   |   |   |   |   |   |   |   |   |   |   |--- class: 0
% |   |   |   |   |   |   |   |   |   |   |--- f15 >  0.50
% |   |   |   |   |   |   |   |   |   |   |   |--- truncated branch of depth 2
% |   |   |   |   |   |   |--- f6 >  173.00
% |   |   |   |   |   |   |   |--- f6 <= 200.50
% |   |   |   |   |   |   |   |   |--- class: 1
% |   |   |   |   |   |   |   |--- f6 >  200.50
% |   |   |   |   |   |   |   |   |--- class: 0
% |   |   |   |--- f14 >  0.50
% |   |   |   |   |--- f3 <= 41.50
% |   |   |   |   |   |--- class: 0
% |   |   |   |   |--- f3 >  41.50
% |   |   |   |   |   |--- class: 1
% |   |   |--- f9 >  0.50
% |   |   |   |--- class: 1
% |--- f30 >  0.50
% |   |--- f31 <= 0.50
% |   |   |--- f6 <= 112.00
% |   |   |   |--- f5 <= 35.50
% |   |   |   |   |--- f6 <= 11.00
% |   |   |   |   |   |--- f8 <= 0.50
% |   |   |   |   |   |   |--- f1 <= 125.50
% |   |   |   |   |   |   |   |--- class: 1
% |   |   |   |   |   |   |--- f1 >  125.50
% |   |   |   |   |   |   |   |--- class: 0
% |   |   |   |   |   |--- f8 >  0.50
% |   |   |   |   |   |   |--- f3 <= 1.50
% |   |   |   |   |   |   |   |--- f7 <= 0.50
% |   |   |   |   |   |   |   |   |--- class: 0
% |   |   |   |   |   |   |   |--- f7 >  0.50
% |   |   |   |   |   |   |   |   |--- class: 1
% |   |   |   |   |   |   |--- f3 >  1.50
% |   |   |   |   |   |   |   |--- class: 1
% |   |   |   |   |--- f6 >  11.00
% |   |   |   |   |   |--- f6 <= 87.50
% |   |   |   |   |   |   |--- class: 0
% |   |   |   |   |   |--- f6 >  87.50
% |   |   |   |   |   |   |--- f3 <= 20.50
% |   |   |   |   |   |   |   |--- class: 0
% |   |   |   |   |   |   |--- f3 >  20.50
% |   |   |   |   |   |   |   |--- class: 1
% |   |   |   |--- f5 >  35.50
% |   |   |   |   |--- f28 <= 0.50
% |   |   |   |   |   |--- f1 <= 277.50
% |   |   |   |   |   |   |--- f6 <= 13.00
% |   |   |   |   |   |   |   |--- f2 <= 11.00
% |   |   |   |   |   |   |   |   |--- class: 1
% |   |   |   |   |   |   |   |--- f2 >  11.00
% |   |   |   |   |   |   |   |   |--- f1 <= 133.00
% |   |   |   |   |   |   |   |   |   |--- f5 <= 96.00
% |   |   |   |   |   |   |   |   |   |   |--- f25 <= 0.50
% |   |   |   |   |   |   |   |   |   |   |   |--- class: 1
% |   |   |   |   |   |   |   |   |   |   |--- f25 >  0.50
% |   |   |   |   |   |   |   |   |   |   |   |--- truncated branch of depth 3
% |   |   |   |   |   |   |   |   |   |--- f5 >  96.00
% |   |   |   |   |   |   |   |   |   |   |--- f20 <= 0.50
% |   |   |   |   |   |   |   |   |   |   |   |--- class: 1
% |   |   |   |   |   |   |   |   |   |   |--- f20 >  0.50
% |   |   |   |   |   |   |   |   |   |   |   |--- class: 0
% |   |   |   |   |   |   |   |   |--- f1 >  133.00
% |   |   |   |   |   |   |   |   |   |--- f11 <= 0.50
% |   |   |   |   |   |   |   |   |   |   |--- f20 <= 0.50
% |   |   |   |   |   |   |   |   |   |   |   |--- class: 0
% |   |   |   |   |   |   |   |   |   |   |--- f20 >  0.50
% |   |   |   |   |   |   |   |   |   |   |   |--- truncated branch of depth 2
% |   |   |   |   |   |   |   |   |   |--- f11 >  0.50
% |   |   |   |   |   |   |   |   |   |   |--- f1 <= 177.00
% |   |   |   |   |   |   |   |   |   |   |   |--- class: 0
% |   |   |   |   |   |   |   |   |   |   |--- f1 >  177.00
% |   |   |   |   |   |   |   |   |   |   |   |--- class: 1
% |   |   |   |   |   |   |--- f6 >  13.00
% |   |   |   |   |   |   |   |--- f6 <= 99.50
% |   |   |   |   |   |   |   |   |--- class: 1
% |   |   |   |   |   |   |   |--- f6 >  99.50
% |   |   |   |   |   |   |   |   |--- class: 0
% |   |   |   |   |   |--- f1 >  277.50
% |   |   |   |   |   |   |--- class: 1
% |   |   |   |   |--- f28 >  0.50
% |   |   |   |   |   |--- f3 <= 105.00
% |   |   |   |   |   |   |--- f2 <= 18.50
% |   |   |   |   |   |   |   |--- class: 1
% |   |   |   |   |   |   |--- f2 >  18.50
% |   |   |   |   |   |   |   |--- f2 <= 34.50
% |   |   |   |   |   |   |   |   |--- class: 0
% |   |   |   |   |   |   |   |--- f2 >  34.50
% |   |   |   |   |   |   |   |   |--- f5 <= 37.00
% |   |   |   |   |   |   |   |   |   |--- class: 0
% |   |   |   |   |   |   |   |   |--- f5 >  37.00
% |   |   |   |   |   |   |   |   |   |--- f17 <= 0.50
% |   |   |   |   |   |   |   |   |   |   |--- f5 <= 150.00
% |   |   |   |   |   |   |   |   |   |   |   |--- truncated branch of depth 3
% |   |   |   |   |   |   |   |   |   |   |--- f5 >  150.00
% |   |   |   |   |   |   |   |   |   |   |   |--- class: 0
% |   |   |   |   |   |   |   |   |   |--- f17 >  0.50
% |   |   |   |   |   |   |   |   |   |   |--- class: 0
% |   |   |   |   |   |--- f3 >  105.00
% |   |   |   |   |   |   |--- class: 0
% |   |   |--- f6 >  112.00
% |   |   |   |--- f26 <= 0.50
% |   |   |   |   |--- class: 1
% |   |   |   |--- f26 >  0.50
% |   |   |   |   |--- class: 0
% |   |--- f31 >  0.50
% |   |   |--- f6 <= 79.50
% |   |   |   |--- f17 <= 0.50
% |   |   |   |   |--- f3 <= 35.00
% |   |   |   |   |   |--- f2 <= 187.00
% |   |   |   |   |   |   |--- f3 <= 31.50
% |   |   |   |   |   |   |   |--- f5 <= 63.50
% |   |   |   |   |   |   |   |   |--- f5 <= 41.00
% |   |   |   |   |   |   |   |   |   |--- f1 <= 32.50
% |   |   |   |   |   |   |   |   |   |   |--- class: 0
% |   |   |   |   |   |   |   |   |   |--- f1 >  32.50
% |   |   |   |   |   |   |   |   |   |   |--- class: 1
% |   |   |   |   |   |   |   |   |--- f5 >  41.00
% |   |   |   |   |   |   |   |   |   |--- f2 <= 53.50
% |   |   |   |   |   |   |   |   |   |   |--- class: 0
% |   |   |   |   |   |   |   |   |   |--- f2 >  53.50
% |   |   |   |   |   |   |   |   |   |   |--- f1 <= 50.50
% |   |   |   |   |   |   |   |   |   |   |   |--- class: 0
% |   |   |   |   |   |   |   |   |   |   |--- f1 >  50.50
% |   |   |   |   |   |   |   |   |   |   |   |--- class: 1
% |   |   |   |   |   |   |   |--- f5 >  63.50
% |   |   |   |   |   |   |   |   |--- class: 1
% |   |   |   |   |   |   |--- f3 >  31.50
% |   |   |   |   |   |   |   |--- class: 0
% |   |   |   |   |   |--- f2 >  187.00
% |   |   |   |   |   |   |--- class: 0
% |   |   |   |   |--- f3 >  35.00
% |   |   |   |   |   |--- f16 <= 0.50
% |   |   |   |   |   |   |--- f5 <= 89.50
% |   |   |   |   |   |   |   |--- class: 1
% |   |   |   |   |   |   |--- f5 >  89.50
% |   |   |   |   |   |   |   |--- f5 <= 104.00
% |   |   |   |   |   |   |   |   |--- class: 0
% |   |   |   |   |   |   |   |--- f5 >  104.00
% |   |   |   |   |   |   |   |   |--- f22 <= 0.50
% |   |   |   |   |   |   |   |   |   |--- class: 1
% |   |   |   |   |   |   |   |   |--- f22 >  0.50
% |   |   |   |   |   |   |   |   |   |--- f5 <= 108.50
% |   |   |   |   |   |   |   |   |   |   |--- class: 0
% |   |   |   |   |   |   |   |   |   |--- f5 >  108.50
% |   |   |   |   |   |   |   |   |   |   |--- class: 1
% |   |   |   |   |   |--- f16 >  0.50
% |   |   |   |   |   |   |--- f26 <= 0.50
% |   |   |   |   |   |   |   |--- class: 0
% |   |   |   |   |   |   |--- f26 >  0.50
% |   |   |   |   |   |   |   |--- class: 1
% |   |   |   |--- f17 >  0.50
% |   |   |   |   |--- f5 <= 63.50
% |   |   |   |   |   |--- class: 0
% |   |   |   |   |--- f5 >  63.50
% |   |   |   |   |   |--- f26 <= 0.50
% |   |   |   |   |   |   |--- class: 1
% |   |   |   |   |   |--- f26 >  0.50
% |   |   |   |   |   |   |--- class: 0
% |   |   |--- f6 >  79.50
% |   |   |   |--- f2 <= 33.50
% |   |   |   |   |--- f6 <= 102.50
% |   |   |   |   |   |--- class: 0
% |   |   |   |   |--- f6 >  102.50
% |   |   |   |   |   |--- f2 <= 32.00
% |   |   |   |   |   |   |--- class: 1
% |   |   |   |   |   |--- f2 >  32.00
% |   |   |   |   |   |   |--- f11 <= 0.50
% |   |   |   |   |   |   |   |--- class: 1
% |   |   |   |   |   |   |--- f11 >  0.50
% |   |   |   |   |   |   |   |--- class: 0
% |   |   |   |--- f2 >  33.50
% |   |   |   |   |--- f11 <= 0.50
% |   |   |   |   |   |--- class: 1
% |   |   |   |   |--- f11 >  0.50
% |   |   |   |   |   |--- f3 <= 43.50
% |   |   |   |   |   |   |--- f3 <= 36.50
% |   |   |   |   |   |   |   |--- class: 1
% |   |   |   |   |   |   |--- f3 >  36.50
% |   |   |   |   |   |   |   |--- class: 0
% |   |   |   |   |   |--- f3 >  43.50
% |   |   |   |   |   |   |--- class: 1
% Accuracy of the decision tree classifier on the training data: 1.00
% Depth of the decision tree classifier: 13
% Number of nodes in the decision tree classifier: 187
% Number of leaf nodes in the decision tree classifier: 94
