example(e1,f1,negative).
example(e1,f2,negative).
example(e1,f3,negative).
example(e1,f4,negative).
example(e1,f5,negative).
example(e1,f6,negative).
example(e2,f1,negative).
example(e2,f2,negative).
example(e2,f3,negative).
example(e2,f4,negative).
example(e2,f5,positive).
example(e2,f6,negative).
example(e3,f1,negative).
example(e3,f2,negative).
example(e3,f3,negative).
example(e3,f4,positive).
example(e3,f5,negative).
example(e3,f6,negative).
example(e4,f1,negative).
example(e4,f2,negative).
example(e4,f3,negative).
example(e4,f4,positive).
example(e4,f5,positive).
example(e4,f6,negative).
example(e5,f1,negative).
example(e5,f2,negative).
example(e5,f3,positive).
example(e5,f4,negative).
example(e5,f5,negative).
example(e5,f6,positive).
example(e6,f1,negative).
example(e6,f2,negative).
example(e6,f3,positive).
example(e6,f4,negative).
example(e6,f5,positive).
example(e6,f6,negative).
example(e7,f1,negative).
example(e7,f2,negative).
example(e7,f3,positive).
example(e7,f4,positive).
example(e7,f5,negative).
example(e7,f6,negative).
example(e8,f1,negative).
example(e8,f2,negative).
example(e8,f3,positive).
example(e8,f4,positive).
example(e8,f5,positive).
example(e8,f6,positive).
example(e9,f1,negative).
example(e9,f2,positive).
example(e9,f3,negative).
example(e9,f4,negative).
example(e9,f5,negative).
example(e9,f6,positive).
example(e10,f1,negative).
example(e10,f2,positive).
example(e10,f3,negative).
example(e10,f4,negative).
example(e10,f5,positive).
example(e10,f6,negative).
example(e11,f1,negative).
example(e11,f2,positive).
example(e11,f3,negative).
example(e11,f4,positive).
example(e11,f5,negative).
example(e11,f6,positive).
example(e12,f1,negative).
example(e12,f2,positive).
example(e12,f3,negative).
example(e12,f4,positive).
example(e12,f5,positive).
example(e12,f6,negative).
example(e13,f1,negative).
example(e13,f2,positive).
example(e13,f3,positive).
example(e13,f4,negative).
example(e13,f5,negative).
example(e13,f6,negative).
example(e14,f1,negative).
example(e14,f2,positive).
example(e14,f3,positive).
example(e14,f4,negative).
example(e14,f5,positive).
example(e14,f6,negative).
example(e15,f1,negative).
example(e15,f2,positive).
example(e15,f3,positive).
example(e15,f4,positive).
example(e15,f5,negative).
example(e15,f6,negative).
example(e16,f1,negative).
example(e16,f2,positive).
example(e16,f3,positive).
example(e16,f4,positive).
example(e16,f5,positive).
example(e16,f6,positive).
example(e17,f1,positive).
example(e17,f2,negative).
example(e17,f3,negative).
example(e17,f4,negative).
example(e17,f5,negative).
example(e17,f6,positive).
example(e18,f1,positive).
example(e18,f2,negative).
example(e18,f3,negative).
example(e18,f4,negative).
example(e18,f5,positive).
example(e18,f6,negative).
example(e19,f1,positive).
example(e19,f2,negative).
example(e19,f3,negative).
example(e19,f4,positive).
example(e19,f5,negative).
example(e19,f6,negative).
example(e20,f1,positive).
example(e20,f2,negative).
example(e20,f3,negative).
example(e20,f4,positive).
example(e20,f5,positive).
example(e20,f6,negative).
example(e21,f1,positive).
example(e21,f2,negative).
example(e21,f3,positive).
example(e21,f4,negative).
example(e21,f5,negative).
example(e21,f6,negative).
example(e22,f1,positive).
example(e22,f2,negative).
example(e22,f3,positive).
example(e22,f4,negative).
example(e22,f5,positive).
example(e22,f6,negative).
example(e23,f1,positive).
example(e23,f2,negative).
example(e23,f3,positive).
example(e23,f4,positive).
example(e23,f5,negative).
example(e23,f6,positive).
example(e24,f1,positive).
example(e24,f2,negative).
example(e24,f3,positive).
example(e24,f4,positive).
example(e24,f5,positive).
example(e24,f6,positive).
example(e25,f1,positive).
example(e25,f2,positive).
example(e25,f3,negative).
example(e25,f4,negative).
example(e25,f5,negative).
example(e25,f6,negative).
example(e26,f1,positive).
example(e26,f2,positive).
example(e26,f3,negative).
example(e26,f4,negative).
example(e26,f5,positive).
example(e26,f6,positive).
example(e27,f1,positive).
example(e27,f2,positive).
example(e27,f3,negative).
example(e27,f4,positive).
example(e27,f5,negative).
example(e27,f6,positive).
example(e28,f1,positive).
example(e28,f2,positive).
example(e28,f3,negative).
example(e28,f4,positive).
example(e28,f5,positive).
example(e28,f6,positive).
example(e29,f1,positive).
example(e29,f2,positive).
example(e29,f3,positive).
example(e29,f4,negative).
example(e29,f5,negative).
example(e29,f6,positive).
example(e30,f1,positive).
example(e30,f2,positive).
example(e30,f3,positive).
example(e30,f4,negative).
example(e30,f5,positive).
example(e30,f6,positive).
example(e31,f1,positive).
example(e31,f2,positive).
example(e31,f3,positive).
example(e31,f4,positive).
example(e31,f5,negative).
example(e31,f6,positive).
example(e32,f1,positive).
example(e32,f2,positive).
example(e32,f3,positive).
example(e32,f4,positive).
example(e32,f5,positive).
example(e32,f6,negative).
example(e33,f1,negative).
example(e33,f2,negative).
example(e33,f3,negative).
example(e33,f4,negative).
example(e33,f5,negative).
example(e33,f6,negative).
example(e34,f1,negative).
example(e34,f2,negative).
example(e34,f3,negative).
example(e34,f4,negative).
example(e34,f5,positive).
example(e34,f6,negative).
example(e35,f1,negative).
example(e35,f2,negative).
example(e35,f3,negative).
example(e35,f4,positive).
example(e35,f5,negative).
example(e35,f6,negative).
example(e36,f1,negative).
example(e36,f2,negative).
example(e36,f3,negative).
example(e36,f4,positive).
example(e36,f5,positive).
example(e36,f6,negative).
example(e37,f1,negative).
example(e37,f2,negative).
example(e37,f3,positive).
example(e37,f4,negative).
example(e37,f5,negative).
example(e37,f6,negative).
example(e38,f1,negative).
example(e38,f2,negative).
example(e38,f3,positive).
example(e38,f4,negative).
example(e38,f5,positive).
example(e38,f6,negative).
example(e39,f1,negative).
example(e39,f2,negative).
example(e39,f3,positive).
example(e39,f4,positive).
example(e39,f5,negative).
example(e39,f6,positive).
example(e40,f1,negative).
example(e40,f2,negative).
example(e40,f3,positive).
example(e40,f4,positive).
example(e40,f5,positive).
example(e40,f6,positive).
example(e41,f1,negative).
example(e41,f2,positive).
example(e41,f3,negative).
example(e41,f4,negative).
example(e41,f5,negative).
example(e41,f6,negative).
example(e42,f1,negative).
example(e42,f2,positive).
example(e42,f3,negative).
example(e42,f4,negative).
example(e42,f5,positive).
example(e42,f6,negative).
example(e43,f1,negative).
example(e43,f2,positive).
example(e43,f3,negative).
example(e43,f4,positive).
example(e43,f5,negative).
example(e43,f6,negative).
example(e44,f1,negative).
example(e44,f2,positive).
example(e44,f3,negative).
example(e44,f4,positive).
example(e44,f5,positive).
example(e44,f6,negative).
example(e45,f1,negative).
example(e45,f2,positive).
example(e45,f3,positive).
example(e45,f4,negative).
example(e45,f5,negative).
example(e45,f6,negative).
example(e46,f1,negative).
example(e46,f2,positive).
example(e46,f3,positive).
example(e46,f4,negative).
example(e46,f5,positive).
example(e46,f6,negative).
example(e47,f1,negative).
example(e47,f2,positive).
example(e47,f3,positive).
example(e47,f4,positive).
example(e47,f5,negative).
example(e47,f6,positive).
example(e48,f1,negative).
example(e48,f2,positive).
example(e48,f3,positive).
example(e48,f4,positive).
example(e48,f5,positive).
example(e48,f6,positive).
example(e49,f1,positive).
example(e49,f2,negative).
example(e49,f3,negative).
example(e49,f4,negative).
example(e49,f5,negative).
example(e49,f6,negative).
example(e50,f1,positive).
example(e50,f2,negative).
example(e50,f3,negative).
example(e50,f4,negative).
example(e50,f5,positive).
example(e50,f6,negative).
example(e51,f1,positive).
example(e51,f2,negative).
example(e51,f3,negative).
example(e51,f4,positive).
example(e51,f5,negative).
example(e51,f6,negative).
example(e52,f1,positive).
example(e52,f2,negative).
example(e52,f3,negative).
example(e52,f4,positive).
example(e52,f5,positive).
example(e52,f6,negative).
example(e53,f1,positive).
example(e53,f2,negative).
example(e53,f3,positive).
example(e53,f4,negative).
example(e53,f5,negative).
example(e53,f6,negative).
example(e54,f1,positive).
example(e54,f2,negative).
example(e54,f3,positive).
example(e54,f4,negative).
example(e54,f5,positive).
example(e54,f6,negative).
example(e55,f1,positive).
example(e55,f2,negative).
example(e55,f3,positive).
example(e55,f4,positive).
example(e55,f5,negative).
example(e55,f6,positive).
example(e56,f1,positive).
example(e56,f2,negative).
example(e56,f3,positive).
example(e56,f4,positive).
example(e56,f5,positive).
example(e56,f6,positive).
example(e57,f1,positive).
example(e57,f2,positive).
example(e57,f3,negative).
example(e57,f4,negative).
example(e57,f5,negative).
example(e57,f6,positive).
example(e58,f1,positive).
example(e58,f2,positive).
example(e58,f3,negative).
example(e58,f4,negative).
example(e58,f5,positive).
example(e58,f6,positive).
example(e59,f1,positive).
example(e59,f2,positive).
example(e59,f3,negative).
example(e59,f4,positive).
example(e59,f5,negative).
example(e59,f6,positive).
example(e60,f1,positive).
example(e60,f2,positive).
example(e60,f3,negative).
example(e60,f4,positive).
example(e60,f5,positive).
example(e60,f6,positive).
example(e61,f1,positive).
example(e61,f2,positive).
example(e61,f3,positive).
example(e61,f4,negative).
example(e61,f5,negative).
example(e61,f6,positive).
example(e62,f1,positive).
example(e62,f2,positive).
example(e62,f3,positive).
example(e62,f4,negative).
example(e62,f5,positive).
example(e62,f6,positive).
example(e63,f1,positive).
example(e63,f2,positive).
example(e63,f3,positive).
example(e63,f4,positive).
example(e63,f5,negative).
example(e63,f6,positive).
example(e64,f1,positive).
example(e64,f2,positive).
example(e64,f3,positive).
example(e64,f4,positive).
example(e64,f5,positive).
example(e64,f6,positive).
example(e65,f1,negative).
example(e65,f2,negative).
example(e65,f3,negative).
example(e65,f4,negative).
example(e65,f5,negative).
example(e65,f6,negative).
example(e66,f1,negative).
example(e66,f2,negative).
example(e66,f3,negative).
example(e66,f4,negative).
example(e66,f5,positive).
example(e66,f6,negative).
example(e67,f1,negative).
example(e67,f2,negative).
example(e67,f3,negative).
example(e67,f4,positive).
example(e67,f5,negative).
example(e67,f6,negative).
example(e68,f1,negative).
example(e68,f2,negative).
example(e68,f3,negative).
example(e68,f4,positive).
example(e68,f5,positive).
example(e68,f6,negative).
example(e69,f1,negative).
example(e69,f2,negative).
example(e69,f3,positive).
example(e69,f4,negative).
example(e69,f5,negative).
example(e69,f6,negative).
example(e70,f1,negative).
example(e70,f2,negative).
example(e70,f3,positive).
example(e70,f4,negative).
example(e70,f5,positive).
example(e70,f6,negative).
example(e71,f1,negative).
example(e71,f2,negative).
example(e71,f3,positive).
example(e71,f4,positive).
example(e71,f5,negative).
example(e71,f6,positive).
example(e72,f1,negative).
example(e72,f2,negative).
example(e72,f3,positive).
example(e72,f4,positive).
example(e72,f5,positive).
example(e72,f6,positive).
example(e73,f1,negative).
example(e73,f2,positive).
example(e73,f3,negative).
example(e73,f4,negative).
example(e73,f5,negative).
example(e73,f6,negative).
example(e74,f1,negative).
example(e74,f2,positive).
example(e74,f3,negative).
example(e74,f4,negative).
example(e74,f5,positive).
example(e74,f6,negative).
example(e75,f1,negative).
example(e75,f2,positive).
example(e75,f3,negative).
example(e75,f4,positive).
example(e75,f5,negative).
example(e75,f6,negative).
example(e76,f1,negative).
example(e76,f2,positive).
example(e76,f3,negative).
example(e76,f4,positive).
example(e76,f5,positive).
example(e76,f6,negative).
example(e77,f1,negative).
example(e77,f2,positive).
example(e77,f3,positive).
example(e77,f4,negative).
example(e77,f5,negative).
example(e77,f6,negative).
example(e78,f1,negative).
example(e78,f2,positive).
example(e78,f3,positive).
example(e78,f4,negative).
example(e78,f5,positive).
example(e78,f6,negative).
example(e79,f1,negative).
example(e79,f2,positive).
example(e79,f3,positive).
example(e79,f4,positive).
example(e79,f5,negative).
example(e79,f6,positive).
example(e80,f1,negative).
example(e80,f2,positive).
example(e80,f3,positive).
example(e80,f4,positive).
example(e80,f5,positive).
example(e80,f6,positive).
example(e81,f1,positive).
example(e81,f2,negative).
example(e81,f3,negative).
example(e81,f4,negative).
example(e81,f5,negative).
example(e81,f6,negative).
example(e82,f1,positive).
example(e82,f2,negative).
example(e82,f3,negative).
example(e82,f4,negative).
example(e82,f5,positive).
example(e82,f6,negative).
example(e83,f1,positive).
example(e83,f2,negative).
example(e83,f3,negative).
example(e83,f4,positive).
example(e83,f5,negative).
example(e83,f6,negative).
example(e84,f1,positive).
example(e84,f2,negative).
example(e84,f3,negative).
example(e84,f4,positive).
example(e84,f5,positive).
example(e84,f6,negative).
example(e85,f1,positive).
example(e85,f2,negative).
example(e85,f3,positive).
example(e85,f4,negative).
example(e85,f5,negative).
example(e85,f6,negative).
example(e86,f1,positive).
example(e86,f2,negative).
example(e86,f3,positive).
example(e86,f4,negative).
example(e86,f5,positive).
example(e86,f6,negative).
example(e87,f1,positive).
example(e87,f2,negative).
example(e87,f3,positive).
example(e87,f4,positive).
example(e87,f5,negative).
example(e87,f6,positive).
example(e88,f1,positive).
example(e88,f2,negative).
example(e88,f3,positive).
example(e88,f4,positive).
example(e88,f5,positive).
example(e88,f6,positive).
example(e89,f1,positive).
example(e89,f2,positive).
example(e89,f3,negative).
example(e89,f4,negative).
example(e89,f5,negative).
example(e89,f6,positive).
example(e90,f1,positive).
example(e90,f2,positive).
example(e90,f3,negative).
example(e90,f4,negative).
example(e90,f5,positive).
example(e90,f6,positive).
example(e91,f1,positive).
example(e91,f2,positive).
example(e91,f3,negative).
example(e91,f4,positive).
example(e91,f5,negative).
example(e91,f6,positive).
example(e92,f1,positive).
example(e92,f2,positive).
example(e92,f3,negative).
example(e92,f4,positive).
example(e92,f5,positive).
example(e92,f6,positive).
example(e93,f1,positive).
example(e93,f2,positive).
example(e93,f3,positive).
example(e93,f4,negative).
example(e93,f5,negative).
example(e93,f6,positive).
example(e94,f1,positive).
example(e94,f2,positive).
example(e94,f3,positive).
example(e94,f4,negative).
example(e94,f5,positive).
example(e94,f6,positive).
example(e95,f1,positive).
example(e95,f2,positive).
example(e95,f3,positive).
example(e95,f4,positive).
example(e95,f5,negative).
example(e95,f6,positive).
example(e96,f1,positive).
example(e96,f2,positive).
example(e96,f3,positive).
example(e96,f4,positive).
example(e96,f5,positive).
example(e96,f6,positive).
example(e97,f1,negative).
example(e97,f2,negative).
example(e97,f3,negative).
example(e97,f4,negative).
example(e97,f5,negative).
example(e97,f6,negative).
example(e98,f1,negative).
example(e98,f2,negative).
example(e98,f3,negative).
example(e98,f4,negative).
example(e98,f5,negative).
example(e98,f6,positive).
example(e99,f1,negative).
example(e99,f2,negative).
example(e99,f3,negative).
example(e99,f4,negative).
example(e99,f5,positive).
example(e99,f6,negative).
example(e100,f1,negative).
example(e100,f2,negative).
example(e100,f3,negative).
example(e100,f4,negative).
example(e100,f5,positive).
example(e100,f6,positive).
example(e101,f1,negative).
example(e101,f2,negative).
example(e101,f3,negative).
example(e101,f4,positive).
example(e101,f5,negative).
example(e101,f6,negative).
example(e102,f1,negative).
example(e102,f2,negative).
example(e102,f3,negative).
example(e102,f4,positive).
example(e102,f5,negative).
example(e102,f6,positive).
example(e103,f1,negative).
example(e103,f2,negative).
example(e103,f3,negative).
example(e103,f4,positive).
example(e103,f5,positive).
example(e103,f6,negative).
example(e104,f1,negative).
example(e104,f2,negative).
example(e104,f3,negative).
example(e104,f4,positive).
example(e104,f5,positive).
example(e104,f6,positive).
example(e105,f1,negative).
example(e105,f2,negative).
example(e105,f3,positive).
example(e105,f4,negative).
example(e105,f5,negative).
example(e105,f6,negative).
example(e106,f1,negative).
example(e106,f2,negative).
example(e106,f3,positive).
example(e106,f4,negative).
example(e106,f5,negative).
example(e106,f6,positive).
example(e107,f1,negative).
example(e107,f2,negative).
example(e107,f3,positive).
example(e107,f4,negative).
example(e107,f5,positive).
example(e107,f6,negative).
example(e108,f1,negative).
example(e108,f2,negative).
example(e108,f3,positive).
example(e108,f4,negative).
example(e108,f5,positive).
example(e108,f6,positive).
example(e109,f1,negative).
example(e109,f2,negative).
example(e109,f3,positive).
example(e109,f4,positive).
example(e109,f5,negative).
example(e109,f6,negative).
example(e110,f1,negative).
example(e110,f2,negative).
example(e110,f3,positive).
example(e110,f4,positive).
example(e110,f5,negative).
example(e110,f6,positive).
example(e111,f1,negative).
example(e111,f2,negative).
example(e111,f3,positive).
example(e111,f4,positive).
example(e111,f5,positive).
example(e111,f6,negative).
example(e112,f1,negative).
example(e112,f2,negative).
example(e112,f3,positive).
example(e112,f4,positive).
example(e112,f5,positive).
example(e112,f6,positive).
example(e113,f1,negative).
example(e113,f2,positive).
example(e113,f3,negative).
example(e113,f4,negative).
example(e113,f5,negative).
example(e113,f6,negative).
example(e114,f1,negative).
example(e114,f2,positive).
example(e114,f3,negative).
example(e114,f4,negative).
example(e114,f5,negative).
example(e114,f6,positive).
example(e115,f1,negative).
example(e115,f2,positive).
example(e115,f3,negative).
example(e115,f4,negative).
example(e115,f5,positive).
example(e115,f6,negative).
example(e116,f1,negative).
example(e116,f2,positive).
example(e116,f3,negative).
example(e116,f4,negative).
example(e116,f5,positive).
example(e116,f6,positive).
example(e117,f1,negative).
example(e117,f2,positive).
example(e117,f3,negative).
example(e117,f4,positive).
example(e117,f5,negative).
example(e117,f6,negative).
example(e118,f1,negative).
example(e118,f2,positive).
example(e118,f3,negative).
example(e118,f4,positive).
example(e118,f5,negative).
example(e118,f6,positive).
example(e119,f1,negative).
example(e119,f2,positive).
example(e119,f3,negative).
example(e119,f4,positive).
example(e119,f5,positive).
example(e119,f6,negative).
example(e120,f1,negative).
example(e120,f2,positive).
example(e120,f3,negative).
example(e120,f4,positive).
example(e120,f5,positive).
example(e120,f6,positive).
example(e121,f1,negative).
example(e121,f2,positive).
example(e121,f3,positive).
example(e121,f4,negative).
example(e121,f5,negative).
example(e121,f6,negative).
example(e122,f1,negative).
example(e122,f2,positive).
example(e122,f3,positive).
example(e122,f4,negative).
example(e122,f5,negative).
example(e122,f6,positive).
example(e123,f1,negative).
example(e123,f2,positive).
example(e123,f3,positive).
example(e123,f4,negative).
example(e123,f5,positive).
example(e123,f6,negative).
example(e124,f1,negative).
example(e124,f2,positive).
example(e124,f3,positive).
example(e124,f4,negative).
example(e124,f5,positive).
example(e124,f6,positive).
example(e125,f1,negative).
example(e125,f2,positive).
example(e125,f3,positive).
example(e125,f4,positive).
example(e125,f5,negative).
example(e125,f6,negative).
example(e126,f1,negative).
example(e126,f2,positive).
example(e126,f3,positive).
example(e126,f4,positive).
example(e126,f5,negative).
example(e126,f6,positive).
example(e127,f1,negative).
example(e127,f2,positive).
example(e127,f3,positive).
example(e127,f4,positive).
example(e127,f5,positive).
example(e127,f6,negative).
example(e128,f1,negative).
example(e128,f2,positive).
example(e128,f3,positive).
example(e128,f4,positive).
example(e128,f5,positive).
example(e128,f6,positive).
example(e129,f1,positive).
example(e129,f2,negative).
example(e129,f3,negative).
example(e129,f4,negative).
example(e129,f5,negative).
example(e129,f6,negative).
example(e130,f1,positive).
example(e130,f2,negative).
example(e130,f3,negative).
example(e130,f4,negative).
example(e130,f5,negative).
example(e130,f6,positive).
example(e131,f1,positive).
example(e131,f2,negative).
example(e131,f3,negative).
example(e131,f4,negative).
example(e131,f5,positive).
example(e131,f6,negative).
example(e132,f1,positive).
example(e132,f2,negative).
example(e132,f3,negative).
example(e132,f4,negative).
example(e132,f5,positive).
example(e132,f6,positive).
example(e133,f1,positive).
example(e133,f2,negative).
example(e133,f3,negative).
example(e133,f4,positive).
example(e133,f5,negative).
example(e133,f6,negative).
example(e134,f1,positive).
example(e134,f2,negative).
example(e134,f3,negative).
example(e134,f4,positive).
example(e134,f5,negative).
example(e134,f6,positive).
example(e135,f1,positive).
example(e135,f2,negative).
example(e135,f3,negative).
example(e135,f4,positive).
example(e135,f5,positive).
example(e135,f6,negative).
example(e136,f1,positive).
example(e136,f2,negative).
example(e136,f3,negative).
example(e136,f4,positive).
example(e136,f5,positive).
example(e136,f6,positive).
example(e137,f1,positive).
example(e137,f2,negative).
example(e137,f3,positive).
example(e137,f4,negative).
example(e137,f5,negative).
example(e137,f6,negative).
example(e138,f1,positive).
example(e138,f2,negative).
example(e138,f3,positive).
example(e138,f4,negative).
example(e138,f5,negative).
example(e138,f6,positive).
example(e139,f1,positive).
example(e139,f2,negative).
example(e139,f3,positive).
example(e139,f4,negative).
example(e139,f5,positive).
example(e139,f6,negative).
example(e140,f1,positive).
example(e140,f2,negative).
example(e140,f3,positive).
example(e140,f4,negative).
example(e140,f5,positive).
example(e140,f6,positive).
example(e141,f1,positive).
example(e141,f2,negative).
example(e141,f3,positive).
example(e141,f4,positive).
example(e141,f5,negative).
example(e141,f6,negative).
example(e142,f1,positive).
example(e142,f2,negative).
example(e142,f3,positive).
example(e142,f4,positive).
example(e142,f5,negative).
example(e142,f6,positive).
example(e143,f1,positive).
example(e143,f2,negative).
example(e143,f3,positive).
example(e143,f4,positive).
example(e143,f5,positive).
example(e143,f6,negative).
example(e144,f1,positive).
example(e144,f2,negative).
example(e144,f3,positive).
example(e144,f4,positive).
example(e144,f5,positive).
example(e144,f6,positive).
example(e145,f1,positive).
example(e145,f2,positive).
example(e145,f3,negative).
example(e145,f4,negative).
example(e145,f5,negative).
example(e145,f6,negative).
example(e146,f1,positive).
example(e146,f2,positive).
example(e146,f3,negative).
example(e146,f4,negative).
example(e146,f5,negative).
example(e146,f6,positive).
example(e147,f1,positive).
example(e147,f2,positive).
example(e147,f3,negative).
example(e147,f4,negative).
example(e147,f5,positive).
example(e147,f6,negative).
example(e148,f1,positive).
example(e148,f2,positive).
example(e148,f3,negative).
example(e148,f4,negative).
example(e148,f5,positive).
example(e148,f6,positive).
example(e149,f1,positive).
example(e149,f2,positive).
example(e149,f3,negative).
example(e149,f4,positive).
example(e149,f5,negative).
example(e149,f6,negative).
example(e150,f1,positive).
example(e150,f2,positive).
example(e150,f3,negative).
example(e150,f4,positive).
example(e150,f5,negative).
example(e150,f6,positive).
example(e151,f1,positive).
example(e151,f2,positive).
example(e151,f3,negative).
example(e151,f4,positive).
example(e151,f5,positive).
example(e151,f6,negative).
example(e152,f1,positive).
example(e152,f2,positive).
example(e152,f3,negative).
example(e152,f4,positive).
example(e152,f5,positive).
example(e152,f6,positive).
example(e153,f1,positive).
example(e153,f2,positive).
example(e153,f3,positive).
example(e153,f4,negative).
example(e153,f5,negative).
example(e153,f6,negative).
example(e154,f1,positive).
example(e154,f2,positive).
example(e154,f3,positive).
example(e154,f4,negative).
example(e154,f5,negative).
example(e154,f6,positive).
example(e155,f1,positive).
example(e155,f2,positive).
example(e155,f3,positive).
example(e155,f4,negative).
example(e155,f5,positive).
example(e155,f6,negative).
example(e156,f1,positive).
example(e156,f2,positive).
example(e156,f3,positive).
example(e156,f4,negative).
example(e156,f5,positive).
example(e156,f6,positive).
example(e157,f1,positive).
example(e157,f2,positive).
example(e157,f3,positive).
example(e157,f4,positive).
example(e157,f5,negative).
example(e157,f6,negative).
example(e158,f1,positive).
example(e158,f2,positive).
example(e158,f3,positive).
example(e158,f4,positive).
example(e158,f5,negative).
example(e158,f6,positive).
example(e159,f1,positive).
example(e159,f2,positive).
example(e159,f3,positive).
example(e159,f4,positive).
example(e159,f5,positive).
example(e159,f6,negative).
example(e160,f1,positive).
example(e160,f2,positive).
example(e160,f3,positive).
example(e160,f4,positive).
example(e160,f5,positive).
example(e160,f6,positive).
target(e1,negative).
target(e2,negative).
target(e3,negative).
target(e4,negative).
target(e5,negative).
target(e6,negative).
target(e7,positive).
target(e8,positive).
target(e9,negative).
target(e10,negative).
target(e11,negative).
target(e12,negative).
target(e13,negative).
target(e14,negative).
target(e15,positive).
target(e16,positive).
target(e17,negative).
target(e18,negative).
target(e19,negative).
target(e20,negative).
target(e21,negative).
target(e22,negative).
target(e23,positive).
target(e24,positive).
target(e25,positive).
target(e26,positive).
target(e27,positive).
target(e28,positive).
target(e29,positive).
target(e30,positive).
target(e31,positive).
target(e32,positive).
target(e33,negative).
target(e34,negative).
target(e35,negative).
target(e36,negative).
target(e37,negative).
target(e38,negative).
target(e39,positive).
target(e40,positive).
target(e41,negative).
target(e42,negative).
target(e43,negative).
target(e44,negative).
target(e45,negative).
target(e46,negative).
target(e47,positive).
target(e48,positive).
target(e49,negative).
target(e50,negative).
target(e51,negative).
target(e52,negative).
target(e53,negative).
target(e54,negative).
target(e55,positive).
target(e56,positive).
target(e57,positive).
target(e58,positive).
target(e59,positive).
target(e60,positive).
target(e61,positive).
target(e62,positive).
target(e63,positive).
target(e64,positive).
target(e65,negative).
target(e66,negative).
target(e67,negative).
target(e68,negative).
target(e69,negative).
target(e70,negative).
target(e71,positive).
target(e72,positive).
target(e73,negative).
target(e74,negative).
target(e75,negative).
target(e76,negative).
target(e77,negative).
target(e78,negative).
target(e79,positive).
target(e80,positive).
target(e81,negative).
target(e82,negative).
target(e83,negative).
target(e84,negative).
target(e85,negative).
target(e86,negative).
target(e87,positive).
target(e88,positive).
target(e89,positive).
target(e90,positive).
target(e91,positive).
target(e92,positive).
target(e93,positive).
target(e94,positive).
target(e95,positive).
target(e96,positive).
target(e97,negative).
target(e98,negative).
target(e99,negative).
target(e100,negative).
target(e101,negative).
target(e102,negative).
target(e103,negative).
target(e104,negative).
target(e105,negative).
target(e106,negative).
target(e107,negative).
target(e108,negative).
target(e109,positive).
target(e110,positive).
target(e111,positive).
target(e112,positive).
target(e113,negative).
target(e114,negative).
target(e115,negative).
target(e116,negative).
target(e117,negative).
target(e118,negative).
target(e119,negative).
target(e120,negative).
target(e121,negative).
target(e122,negative).
target(e123,negative).
target(e124,negative).
target(e125,positive).
target(e126,positive).
target(e127,positive).
target(e128,positive).
target(e129,negative).
target(e130,negative).
target(e131,negative).
target(e132,negative).
target(e133,negative).
target(e134,negative).
target(e135,negative).
target(e136,negative).
target(e137,negative).
target(e138,negative).
target(e139,negative).
target(e140,negative).
target(e141,positive).
target(e142,positive).
target(e143,positive).
target(e144,positive).
target(e145,positive).
target(e146,positive).
target(e147,positive).
target(e148,positive).
target(e149,positive).
target(e150,positive).
target(e151,positive).
target(e152,positive).
target(e153,positive).
target(e154,positive).
target(e155,positive).
target(e156,positive).
target(e157,positive).
target(e158,positive).
target(e159,positive).
target(e160,positive).
feature(f1; f2; f3; f4; f5; f6).
% |--- f6 <= 0.50
% |   |--- f2 <= 0.50
% |   |   |--- f3 <= 0.50
% |   |   |   |--- class: 0
% |   |   |--- f3 >  0.50
% |   |   |   |--- f4 <= 0.50
% |   |   |   |   |--- class: 0
% |   |   |   |--- f4 >  0.50
% |   |   |   |   |--- class: 1
% |   |--- f2 >  0.50
% |   |   |--- f1 <= 0.50
% |   |   |   |--- f4 <= 0.50
% |   |   |   |   |--- class: 0
% |   |   |   |--- f4 >  0.50
% |   |   |   |   |--- f3 <= 0.50
% |   |   |   |   |   |--- class: 0
% |   |   |   |   |--- f3 >  0.50
% |   |   |   |   |   |--- class: 1
% |   |   |--- f1 >  0.50
% |   |   |   |--- class: 1
% |--- f6 >  0.50
% |   |--- f1 <= 0.50
% |   |   |--- f3 <= 0.50
% |   |   |   |--- class: 0
% |   |   |--- f3 >  0.50
% |   |   |   |--- f4 <= 0.50
% |   |   |   |   |--- class: 0
% |   |   |   |--- f4 >  0.50
% |   |   |   |   |--- class: 1
% |   |--- f1 >  0.50
% |   |   |--- f2 <= 0.50
% |   |   |   |--- f4 <= 0.50
% |   |   |   |   |--- class: 0
% |   |   |   |--- f4 >  0.50
% |   |   |   |   |--- f3 <= 0.50
% |   |   |   |   |   |--- class: 0
% |   |   |   |   |--- f3 >  0.50
% |   |   |   |   |   |--- class: 1
% |   |   |--- f2 >  0.50
% |   |   |   |--- class: 1
% Accuracy of the decision tree classifier on the training data: 1.00
% Depth of the decision tree classifier: 5
% Number of nodes in the decision tree classifier: 27
% Number of leaf nodes in the decision tree classifier: 14
