example(e1,f1,negative).
example(e1,f2,negative).
example(e1,f3,negative).
example(e1,f4,negative).
example(e1,f5,negative).
example(e1,f6,negative).
example(e1,f7,negative).
example(e1,f8,negative).
example(e2,f1,positive).
example(e2,f2,negative).
example(e2,f3,negative).
example(e2,f4,negative).
example(e2,f5,negative).
example(e2,f6,negative).
example(e2,f7,negative).
example(e2,f8,negative).
example(e3,f1,negative).
example(e3,f2,negative).
example(e3,f3,negative).
example(e3,f4,negative).
example(e3,f5,negative).
example(e3,f6,negative).
example(e3,f7,negative).
example(e3,f8,negative).
example(e4,f1,positive).
example(e4,f2,negative).
example(e4,f3,negative).
example(e4,f4,negative).
example(e4,f5,negative).
example(e4,f6,negative).
example(e4,f7,negative).
example(e4,f8,negative).
example(e5,f1,negative).
example(e5,f2,negative).
example(e5,f3,negative).
example(e5,f4,negative).
example(e5,f5,negative).
example(e5,f6,negative).
example(e5,f7,negative).
example(e5,f8,negative).
example(e6,f1,negative).
example(e6,f2,negative).
example(e6,f3,negative).
example(e6,f4,negative).
example(e6,f5,negative).
example(e6,f6,negative).
example(e6,f7,negative).
example(e6,f8,negative).
example(e7,f1,negative).
example(e7,f2,negative).
example(e7,f3,negative).
example(e7,f4,negative).
example(e7,f5,negative).
example(e7,f6,negative).
example(e7,f7,negative).
example(e7,f8,negative).
example(e8,f1,negative).
example(e8,f2,negative).
example(e8,f3,negative).
example(e8,f4,negative).
example(e8,f5,negative).
example(e8,f6,negative).
example(e8,f7,negative).
example(e8,f8,negative).
example(e9,f1,negative).
example(e9,f2,negative).
example(e9,f3,negative).
example(e9,f4,negative).
example(e9,f5,negative).
example(e9,f6,negative).
example(e9,f7,negative).
example(e9,f8,negative).
example(e10,f1,negative).
example(e10,f2,negative).
example(e10,f3,negative).
example(e10,f4,negative).
example(e10,f5,negative).
example(e10,f6,negative).
example(e10,f7,negative).
example(e10,f8,negative).
example(e11,f1,negative).
example(e11,f2,negative).
example(e11,f3,negative).
example(e11,f4,negative).
example(e11,f5,negative).
example(e11,f6,negative).
example(e11,f7,negative).
example(e11,f8,negative).
example(e12,f1,negative).
example(e12,f2,negative).
example(e12,f3,negative).
example(e12,f4,negative).
example(e12,f5,negative).
example(e12,f6,negative).
example(e12,f7,negative).
example(e12,f8,negative).
example(e13,f1,negative).
example(e13,f2,negative).
example(e13,f3,negative).
example(e13,f4,negative).
example(e13,f5,negative).
example(e13,f6,negative).
example(e13,f7,positive).
example(e13,f8,negative).
example(e14,f1,positive).
example(e14,f2,negative).
example(e14,f3,negative).
example(e14,f4,negative).
example(e14,f5,negative).
example(e14,f6,negative).
example(e14,f7,negative).
example(e14,f8,negative).
example(e15,f1,negative).
example(e15,f2,negative).
example(e15,f3,negative).
example(e15,f4,negative).
example(e15,f5,negative).
example(e15,f6,negative).
example(e15,f7,negative).
example(e15,f8,negative).
example(e16,f1,negative).
example(e16,f2,negative).
example(e16,f3,negative).
example(e16,f4,negative).
example(e16,f5,negative).
example(e16,f6,negative).
example(e16,f7,negative).
example(e16,f8,negative).
example(e17,f1,negative).
example(e17,f2,negative).
example(e17,f3,negative).
example(e17,f4,negative).
example(e17,f5,negative).
example(e17,f6,negative).
example(e17,f7,negative).
example(e17,f8,negative).
example(e18,f1,negative).
example(e18,f2,negative).
example(e18,f3,negative).
example(e18,f4,negative).
example(e18,f5,negative).
example(e18,f6,negative).
example(e18,f7,negative).
example(e18,f8,negative).
example(e19,f1,positive).
example(e19,f2,negative).
example(e19,f3,negative).
example(e19,f4,negative).
example(e19,f5,negative).
example(e19,f6,negative).
example(e19,f7,negative).
example(e19,f8,negative).
example(e20,f1,positive).
example(e20,f2,negative).
example(e20,f3,negative).
example(e20,f4,negative).
example(e20,f5,negative).
example(e20,f6,negative).
example(e20,f7,negative).
example(e20,f8,negative).
example(e21,f1,negative).
example(e21,f2,negative).
example(e21,f3,negative).
example(e21,f4,negative).
example(e21,f5,negative).
example(e21,f6,negative).
example(e21,f7,negative).
example(e21,f8,negative).
example(e22,f1,negative).
example(e22,f2,negative).
example(e22,f3,negative).
example(e22,f4,negative).
example(e22,f5,negative).
example(e22,f6,negative).
example(e22,f7,negative).
example(e22,f8,negative).
example(e23,f1,negative).
example(e23,f2,negative).
example(e23,f3,negative).
example(e23,f4,negative).
example(e23,f5,negative).
example(e23,f6,negative).
example(e23,f7,negative).
example(e23,f8,negative).
example(e24,f1,negative).
example(e24,f2,negative).
example(e24,f3,negative).
example(e24,f4,negative).
example(e24,f5,negative).
example(e24,f6,negative).
example(e24,f7,negative).
example(e24,f8,negative).
example(e25,f1,negative).
example(e25,f2,negative).
example(e25,f3,negative).
example(e25,f4,negative).
example(e25,f5,negative).
example(e25,f6,negative).
example(e25,f7,negative).
example(e25,f8,negative).
example(e26,f1,negative).
example(e26,f2,negative).
example(e26,f3,negative).
example(e26,f4,negative).
example(e26,f5,negative).
example(e26,f6,negative).
example(e26,f7,negative).
example(e26,f8,negative).
example(e27,f1,negative).
example(e27,f2,negative).
example(e27,f3,negative).
example(e27,f4,negative).
example(e27,f5,negative).
example(e27,f6,negative).
example(e27,f7,negative).
example(e27,f8,negative).
example(e28,f1,positive).
example(e28,f2,negative).
example(e28,f3,negative).
example(e28,f4,negative).
example(e28,f5,negative).
example(e28,f6,negative).
example(e28,f7,negative).
example(e28,f8,negative).
example(e29,f1,negative).
example(e29,f2,negative).
example(e29,f3,negative).
example(e29,f4,negative).
example(e29,f5,negative).
example(e29,f6,negative).
example(e29,f7,negative).
example(e29,f8,negative).
example(e30,f1,negative).
example(e30,f2,negative).
example(e30,f3,negative).
example(e30,f4,negative).
example(e30,f5,negative).
example(e30,f6,negative).
example(e30,f7,negative).
example(e30,f8,negative).
example(e31,f1,negative).
example(e31,f2,negative).
example(e31,f3,negative).
example(e31,f4,negative).
example(e31,f5,negative).
example(e31,f6,negative).
example(e31,f7,negative).
example(e31,f8,negative).
example(e32,f1,negative).
example(e32,f2,negative).
example(e32,f3,negative).
example(e32,f4,negative).
example(e32,f5,negative).
example(e32,f6,negative).
example(e32,f7,negative).
example(e32,f8,negative).
example(e33,f1,negative).
example(e33,f2,negative).
example(e33,f3,negative).
example(e33,f4,negative).
example(e33,f5,negative).
example(e33,f6,negative).
example(e33,f7,negative).
example(e33,f8,negative).
example(e34,f1,negative).
example(e34,f2,negative).
example(e34,f3,negative).
example(e34,f4,negative).
example(e34,f5,negative).
example(e34,f6,negative).
example(e34,f7,negative).
example(e34,f8,negative).
example(e35,f1,negative).
example(e35,f2,negative).
example(e35,f3,negative).
example(e35,f4,negative).
example(e35,f5,negative).
example(e35,f6,negative).
example(e35,f7,negative).
example(e35,f8,negative).
example(e36,f1,negative).
example(e36,f2,negative).
example(e36,f3,negative).
example(e36,f4,negative).
example(e36,f5,negative).
example(e36,f6,negative).
example(e36,f7,negative).
example(e36,f8,negative).
example(e37,f1,negative).
example(e37,f2,negative).
example(e37,f3,negative).
example(e37,f4,negative).
example(e37,f5,negative).
example(e37,f6,negative).
example(e37,f7,negative).
example(e37,f8,negative).
example(e38,f1,negative).
example(e38,f2,negative).
example(e38,f3,negative).
example(e38,f4,negative).
example(e38,f5,negative).
example(e38,f6,negative).
example(e38,f7,negative).
example(e38,f8,negative).
example(e39,f1,negative).
example(e39,f2,negative).
example(e39,f3,negative).
example(e39,f4,negative).
example(e39,f5,negative).
example(e39,f6,negative).
example(e39,f7,negative).
example(e39,f8,negative).
example(e40,f1,negative).
example(e40,f2,negative).
example(e40,f3,negative).
example(e40,f4,negative).
example(e40,f5,negative).
example(e40,f6,negative).
example(e40,f7,positive).
example(e40,f8,negative).
example(e41,f1,negative).
example(e41,f2,negative).
example(e41,f3,negative).
example(e41,f4,negative).
example(e41,f5,negative).
example(e41,f6,negative).
example(e41,f7,negative).
example(e41,f8,negative).
example(e42,f1,negative).
example(e42,f2,negative).
example(e42,f3,negative).
example(e42,f4,negative).
example(e42,f5,negative).
example(e42,f6,negative).
example(e42,f7,negative).
example(e42,f8,negative).
example(e43,f1,negative).
example(e43,f2,negative).
example(e43,f3,negative).
example(e43,f4,negative).
example(e43,f5,negative).
example(e43,f6,negative).
example(e43,f7,negative).
example(e43,f8,negative).
example(e44,f1,negative).
example(e44,f2,negative).
example(e44,f3,negative).
example(e44,f4,negative).
example(e44,f5,negative).
example(e44,f6,negative).
example(e44,f7,negative).
example(e44,f8,negative).
example(e45,f1,negative).
example(e45,f2,negative).
example(e45,f3,negative).
example(e45,f4,negative).
example(e45,f5,negative).
example(e45,f6,negative).
example(e45,f7,negative).
example(e45,f8,negative).
example(e46,f1,negative).
example(e46,f2,negative).
example(e46,f3,negative).
example(e46,f4,negative).
example(e46,f5,negative).
example(e46,f6,negative).
example(e46,f7,positive).
example(e46,f8,negative).
example(e47,f1,positive).
example(e47,f2,negative).
example(e47,f3,negative).
example(e47,f4,negative).
example(e47,f5,negative).
example(e47,f6,negative).
example(e47,f7,negative).
example(e47,f8,negative).
example(e48,f1,negative).
example(e48,f2,negative).
example(e48,f3,negative).
example(e48,f4,negative).
example(e48,f5,negative).
example(e48,f6,negative).
example(e48,f7,negative).
example(e48,f8,negative).
example(e49,f1,negative).
example(e49,f2,negative).
example(e49,f3,negative).
example(e49,f4,negative).
example(e49,f5,negative).
example(e49,f6,negative).
example(e49,f7,negative).
example(e49,f8,negative).
example(e50,f1,negative).
example(e50,f2,negative).
example(e50,f3,negative).
example(e50,f4,negative).
example(e50,f5,negative).
example(e50,f6,negative).
example(e50,f7,negative).
example(e50,f8,negative).
example(e51,f1,positive).
example(e51,f2,negative).
example(e51,f3,negative).
example(e51,f4,negative).
example(e51,f5,negative).
example(e51,f6,negative).
example(e51,f7,negative).
example(e51,f8,negative).
example(e52,f1,positive).
example(e52,f2,negative).
example(e52,f3,negative).
example(e52,f4,negative).
example(e52,f5,negative).
example(e52,f6,negative).
example(e52,f7,negative).
example(e52,f8,negative).
example(e53,f1,negative).
example(e53,f2,negative).
example(e53,f3,negative).
example(e53,f4,negative).
example(e53,f5,negative).
example(e53,f6,negative).
example(e53,f7,negative).
example(e53,f8,negative).
example(e54,f1,negative).
example(e54,f2,negative).
example(e54,f3,negative).
example(e54,f4,negative).
example(e54,f5,negative).
example(e54,f6,negative).
example(e54,f7,negative).
example(e54,f8,negative).
example(e55,f1,negative).
example(e55,f2,negative).
example(e55,f3,negative).
example(e55,f4,negative).
example(e55,f5,negative).
example(e55,f6,negative).
example(e55,f7,negative).
example(e55,f8,negative).
example(e56,f1,positive).
example(e56,f2,negative).
example(e56,f3,negative).
example(e56,f4,negative).
example(e56,f5,negative).
example(e56,f6,negative).
example(e56,f7,negative).
example(e56,f8,negative).
example(e57,f1,negative).
example(e57,f2,negative).
example(e57,f3,negative).
example(e57,f4,negative).
example(e57,f5,negative).
example(e57,f6,negative).
example(e57,f7,negative).
example(e57,f8,negative).
example(e58,f1,negative).
example(e58,f2,negative).
example(e58,f3,negative).
example(e58,f4,negative).
example(e58,f5,negative).
example(e58,f6,negative).
example(e58,f7,negative).
example(e58,f8,negative).
example(e59,f1,negative).
example(e59,f2,negative).
example(e59,f3,negative).
example(e59,f4,negative).
example(e59,f5,negative).
example(e59,f6,negative).
example(e59,f7,positive).
example(e59,f8,negative).
example(e60,f1,negative).
example(e60,f2,negative).
example(e60,f3,negative).
example(e60,f4,negative).
example(e60,f5,negative).
example(e60,f6,negative).
example(e60,f7,negative).
example(e60,f8,negative).
example(e61,f1,negative).
example(e61,f2,negative).
example(e61,f3,negative).
example(e61,f4,negative).
example(e61,f5,negative).
example(e61,f6,negative).
example(e61,f7,negative).
example(e61,f8,negative).
example(e62,f1,negative).
example(e62,f2,negative).
example(e62,f3,negative).
example(e62,f4,negative).
example(e62,f5,negative).
example(e62,f6,negative).
example(e62,f7,negative).
example(e62,f8,negative).
example(e63,f1,negative).
example(e63,f2,negative).
example(e63,f3,negative).
example(e63,f4,negative).
example(e63,f5,negative).
example(e63,f6,negative).
example(e63,f7,negative).
example(e63,f8,negative).
example(e64,f1,negative).
example(e64,f2,negative).
example(e64,f3,negative).
example(e64,f4,negative).
example(e64,f5,negative).
example(e64,f6,negative).
example(e64,f7,negative).
example(e64,f8,negative).
example(e65,f1,negative).
example(e65,f2,negative).
example(e65,f3,negative).
example(e65,f4,negative).
example(e65,f5,negative).
example(e65,f6,negative).
example(e65,f7,negative).
example(e65,f8,negative).
example(e66,f1,negative).
example(e66,f2,negative).
example(e66,f3,negative).
example(e66,f4,negative).
example(e66,f5,negative).
example(e66,f6,negative).
example(e66,f7,negative).
example(e66,f8,negative).
example(e67,f1,negative).
example(e67,f2,negative).
example(e67,f3,negative).
example(e67,f4,negative).
example(e67,f5,negative).
example(e67,f6,negative).
example(e67,f7,negative).
example(e67,f8,negative).
example(e68,f1,negative).
example(e68,f2,negative).
example(e68,f3,negative).
example(e68,f4,negative).
example(e68,f5,negative).
example(e68,f6,negative).
example(e68,f7,negative).
example(e68,f8,negative).
example(e69,f1,positive).
example(e69,f2,negative).
example(e69,f3,negative).
example(e69,f4,negative).
example(e69,f5,negative).
example(e69,f6,negative).
example(e69,f7,negative).
example(e69,f8,negative).
example(e70,f1,negative).
example(e70,f2,negative).
example(e70,f3,negative).
example(e70,f4,negative).
example(e70,f5,negative).
example(e70,f6,negative).
example(e70,f7,negative).
example(e70,f8,negative).
example(e71,f1,negative).
example(e71,f2,negative).
example(e71,f3,negative).
example(e71,f4,negative).
example(e71,f5,negative).
example(e71,f6,negative).
example(e71,f7,negative).
example(e71,f8,negative).
example(e72,f1,negative).
example(e72,f2,negative).
example(e72,f3,negative).
example(e72,f4,negative).
example(e72,f5,negative).
example(e72,f6,negative).
example(e72,f7,negative).
example(e72,f8,negative).
example(e73,f1,negative).
example(e73,f2,negative).
example(e73,f3,negative).
example(e73,f4,negative).
example(e73,f5,negative).
example(e73,f6,negative).
example(e73,f7,negative).
example(e73,f8,negative).
example(e74,f1,negative).
example(e74,f2,negative).
example(e74,f3,negative).
example(e74,f4,negative).
example(e74,f5,negative).
example(e74,f6,negative).
example(e74,f7,negative).
example(e74,f8,negative).
example(e75,f1,positive).
example(e75,f2,negative).
example(e75,f3,negative).
example(e75,f4,negative).
example(e75,f5,negative).
example(e75,f6,negative).
example(e75,f7,negative).
example(e75,f8,negative).
example(e76,f1,positive).
example(e76,f2,negative).
example(e76,f3,negative).
example(e76,f4,negative).
example(e76,f5,negative).
example(e76,f6,negative).
example(e76,f7,negative).
example(e76,f8,negative).
example(e77,f1,negative).
example(e77,f2,negative).
example(e77,f3,negative).
example(e77,f4,negative).
example(e77,f5,negative).
example(e77,f6,negative).
example(e77,f7,negative).
example(e77,f8,negative).
example(e78,f1,negative).
example(e78,f2,negative).
example(e78,f3,negative).
example(e78,f4,negative).
example(e78,f5,negative).
example(e78,f6,negative).
example(e78,f7,negative).
example(e78,f8,negative).
example(e79,f1,negative).
example(e79,f2,negative).
example(e79,f3,negative).
example(e79,f4,negative).
example(e79,f5,negative).
example(e79,f6,negative).
example(e79,f7,negative).
example(e79,f8,negative).
example(e80,f1,negative).
example(e80,f2,negative).
example(e80,f3,negative).
example(e80,f4,negative).
example(e80,f5,negative).
example(e80,f6,negative).
example(e80,f7,negative).
example(e80,f8,negative).
example(e81,f1,negative).
example(e81,f2,negative).
example(e81,f3,negative).
example(e81,f4,negative).
example(e81,f5,negative).
example(e81,f6,negative).
example(e81,f7,negative).
example(e81,f8,negative).
example(e82,f1,negative).
example(e82,f2,negative).
example(e82,f3,negative).
example(e82,f4,negative).
example(e82,f5,negative).
example(e82,f6,negative).
example(e82,f7,negative).
example(e82,f8,negative).
example(e83,f1,negative).
example(e83,f2,negative).
example(e83,f3,negative).
example(e83,f4,negative).
example(e83,f5,negative).
example(e83,f6,negative).
example(e83,f7,negative).
example(e83,f8,negative).
example(e84,f1,negative).
example(e84,f2,negative).
example(e84,f3,negative).
example(e84,f4,negative).
example(e84,f5,negative).
example(e84,f6,negative).
example(e84,f7,negative).
example(e84,f8,negative).
example(e85,f1,negative).
example(e85,f2,negative).
example(e85,f3,negative).
example(e85,f4,negative).
example(e85,f5,negative).
example(e85,f6,negative).
example(e85,f7,negative).
example(e85,f8,negative).
example(e86,f1,negative).
example(e86,f2,negative).
example(e86,f3,negative).
example(e86,f4,negative).
example(e86,f5,negative).
example(e86,f6,negative).
example(e86,f7,negative).
example(e86,f8,negative).
example(e87,f1,negative).
example(e87,f2,negative).
example(e87,f3,negative).
example(e87,f4,negative).
example(e87,f5,negative).
example(e87,f6,negative).
example(e87,f7,negative).
example(e87,f8,negative).
example(e88,f1,negative).
example(e88,f2,negative).
example(e88,f3,negative).
example(e88,f4,negative).
example(e88,f5,negative).
example(e88,f6,negative).
example(e88,f7,negative).
example(e88,f8,negative).
example(e89,f1,negative).
example(e89,f2,negative).
example(e89,f3,negative).
example(e89,f4,negative).
example(e89,f5,negative).
example(e89,f6,negative).
example(e89,f7,negative).
example(e89,f8,negative).
example(e90,f1,positive).
example(e90,f2,negative).
example(e90,f3,negative).
example(e90,f4,negative).
example(e90,f5,negative).
example(e90,f6,negative).
example(e90,f7,negative).
example(e90,f8,negative).
example(e91,f1,positive).
example(e91,f2,negative).
example(e91,f3,negative).
example(e91,f4,negative).
example(e91,f5,negative).
example(e91,f6,negative).
example(e91,f7,negative).
example(e91,f8,negative).
example(e92,f1,negative).
example(e92,f2,negative).
example(e92,f3,negative).
example(e92,f4,negative).
example(e92,f5,negative).
example(e92,f6,negative).
example(e92,f7,negative).
example(e92,f8,negative).
example(e93,f1,negative).
example(e93,f2,negative).
example(e93,f3,negative).
example(e93,f4,negative).
example(e93,f5,negative).
example(e93,f6,negative).
example(e93,f7,negative).
example(e93,f8,negative).
example(e94,f1,negative).
example(e94,f2,negative).
example(e94,f3,negative).
example(e94,f4,negative).
example(e94,f5,negative).
example(e94,f6,negative).
example(e94,f7,negative).
example(e94,f8,negative).
example(e95,f1,negative).
example(e95,f2,negative).
example(e95,f3,negative).
example(e95,f4,negative).
example(e95,f5,negative).
example(e95,f6,negative).
example(e95,f7,negative).
example(e95,f8,negative).
example(e96,f1,negative).
example(e96,f2,negative).
example(e96,f3,negative).
example(e96,f4,negative).
example(e96,f5,negative).
example(e96,f6,negative).
example(e96,f7,negative).
example(e96,f8,negative).
example(e97,f1,negative).
example(e97,f2,negative).
example(e97,f3,negative).
example(e97,f4,negative).
example(e97,f5,negative).
example(e97,f6,negative).
example(e97,f7,negative).
example(e97,f8,negative).
example(e98,f1,positive).
example(e98,f2,negative).
example(e98,f3,negative).
example(e98,f4,negative).
example(e98,f5,negative).
example(e98,f6,negative).
example(e98,f7,negative).
example(e98,f8,negative).
example(e99,f1,negative).
example(e99,f2,negative).
example(e99,f3,negative).
example(e99,f4,negative).
example(e99,f5,negative).
example(e99,f6,negative).
example(e99,f7,negative).
example(e99,f8,negative).
example(e100,f1,positive).
example(e100,f2,negative).
example(e100,f3,negative).
example(e100,f4,negative).
example(e100,f5,negative).
example(e100,f6,negative).
example(e100,f7,negative).
example(e100,f8,negative).
example(e101,f1,positive).
example(e101,f2,negative).
example(e101,f3,negative).
example(e101,f4,negative).
example(e101,f5,negative).
example(e101,f6,negative).
example(e101,f7,positive).
example(e101,f8,negative).
example(e102,f1,positive).
example(e102,f2,negative).
example(e102,f3,negative).
example(e102,f4,negative).
example(e102,f5,negative).
example(e102,f6,negative).
example(e102,f7,negative).
example(e102,f8,negative).
example(e103,f1,negative).
example(e103,f2,negative).
example(e103,f3,negative).
example(e103,f4,negative).
example(e103,f5,negative).
example(e103,f6,negative).
example(e103,f7,negative).
example(e103,f8,negative).
example(e104,f1,positive).
example(e104,f2,negative).
example(e104,f3,negative).
example(e104,f4,negative).
example(e104,f5,negative).
example(e104,f6,negative).
example(e104,f7,negative).
example(e104,f8,negative).
example(e105,f1,negative).
example(e105,f2,negative).
example(e105,f3,negative).
example(e105,f4,negative).
example(e105,f5,negative).
example(e105,f6,negative).
example(e105,f7,negative).
example(e105,f8,negative).
example(e106,f1,positive).
example(e106,f2,negative).
example(e106,f3,negative).
example(e106,f4,negative).
example(e106,f5,negative).
example(e106,f6,negative).
example(e106,f7,negative).
example(e106,f8,negative).
example(e107,f1,positive).
example(e107,f2,negative).
example(e107,f3,negative).
example(e107,f4,negative).
example(e107,f5,negative).
example(e107,f6,negative).
example(e107,f7,negative).
example(e107,f8,negative).
example(e108,f1,negative).
example(e108,f2,negative).
example(e108,f3,negative).
example(e108,f4,negative).
example(e108,f5,negative).
example(e108,f6,negative).
example(e108,f7,negative).
example(e108,f8,negative).
example(e109,f1,negative).
example(e109,f2,negative).
example(e109,f3,negative).
example(e109,f4,negative).
example(e109,f5,negative).
example(e109,f6,negative).
example(e109,f7,negative).
example(e109,f8,negative).
example(e110,f1,negative).
example(e110,f2,negative).
example(e110,f3,negative).
example(e110,f4,negative).
example(e110,f5,negative).
example(e110,f6,negative).
example(e110,f7,negative).
example(e110,f8,negative).
example(e111,f1,negative).
example(e111,f2,negative).
example(e111,f3,negative).
example(e111,f4,negative).
example(e111,f5,negative).
example(e111,f6,negative).
example(e111,f7,negative).
example(e111,f8,negative).
example(e112,f1,negative).
example(e112,f2,negative).
example(e112,f3,negative).
example(e112,f4,negative).
example(e112,f5,negative).
example(e112,f6,negative).
example(e112,f7,negative).
example(e112,f8,negative).
example(e113,f1,positive).
example(e113,f2,negative).
example(e113,f3,negative).
example(e113,f4,negative).
example(e113,f5,negative).
example(e113,f6,negative).
example(e113,f7,negative).
example(e113,f8,negative).
example(e114,f1,negative).
example(e114,f2,negative).
example(e114,f3,negative).
example(e114,f4,negative).
example(e114,f5,negative).
example(e114,f6,negative).
example(e114,f7,negative).
example(e114,f8,negative).
example(e115,f1,negative).
example(e115,f2,negative).
example(e115,f3,negative).
example(e115,f4,negative).
example(e115,f5,negative).
example(e115,f6,negative).
example(e115,f7,negative).
example(e115,f8,negative).
example(e116,f1,negative).
example(e116,f2,negative).
example(e116,f3,negative).
example(e116,f4,negative).
example(e116,f5,negative).
example(e116,f6,negative).
example(e116,f7,negative).
example(e116,f8,negative).
example(e117,f1,negative).
example(e117,f2,negative).
example(e117,f3,negative).
example(e117,f4,negative).
example(e117,f5,negative).
example(e117,f6,negative).
example(e117,f7,negative).
example(e117,f8,negative).
example(e118,f1,negative).
example(e118,f2,negative).
example(e118,f3,negative).
example(e118,f4,negative).
example(e118,f5,negative).
example(e118,f6,negative).
example(e118,f7,negative).
example(e118,f8,negative).
example(e119,f1,negative).
example(e119,f2,negative).
example(e119,f3,negative).
example(e119,f4,negative).
example(e119,f5,negative).
example(e119,f6,negative).
example(e119,f7,negative).
example(e119,f8,negative).
example(e120,f1,negative).
example(e120,f2,negative).
example(e120,f3,negative).
example(e120,f4,negative).
example(e120,f5,negative).
example(e120,f6,negative).
example(e120,f7,negative).
example(e120,f8,negative).
example(e121,f1,negative).
example(e121,f2,negative).
example(e121,f3,negative).
example(e121,f4,negative).
example(e121,f5,negative).
example(e121,f6,negative).
example(e121,f7,negative).
example(e121,f8,negative).
example(e122,f1,negative).
example(e122,f2,negative).
example(e122,f3,negative).
example(e122,f4,negative).
example(e122,f5,negative).
example(e122,f6,negative).
example(e122,f7,negative).
example(e122,f8,negative).
example(e123,f1,negative).
example(e123,f2,negative).
example(e123,f3,negative).
example(e123,f4,negative).
example(e123,f5,negative).
example(e123,f6,negative).
example(e123,f7,negative).
example(e123,f8,negative).
example(e124,f1,negative).
example(e124,f2,negative).
example(e124,f3,negative).
example(e124,f4,negative).
example(e124,f5,negative).
example(e124,f6,negative).
example(e124,f7,negative).
example(e124,f8,negative).
example(e125,f1,negative).
example(e125,f2,negative).
example(e125,f3,negative).
example(e125,f4,negative).
example(e125,f5,negative).
example(e125,f6,negative).
example(e125,f7,negative).
example(e125,f8,negative).
example(e126,f1,positive).
example(e126,f2,negative).
example(e126,f3,negative).
example(e126,f4,negative).
example(e126,f5,negative).
example(e126,f6,negative).
example(e126,f7,negative).
example(e126,f8,negative).
example(e127,f1,negative).
example(e127,f2,negative).
example(e127,f3,negative).
example(e127,f4,negative).
example(e127,f5,negative).
example(e127,f6,negative).
example(e127,f7,negative).
example(e127,f8,negative).
example(e128,f1,positive).
example(e128,f2,negative).
example(e128,f3,negative).
example(e128,f4,negative).
example(e128,f5,negative).
example(e128,f6,negative).
example(e128,f7,negative).
example(e128,f8,negative).
example(e129,f1,positive).
example(e129,f2,negative).
example(e129,f3,negative).
example(e129,f4,negative).
example(e129,f5,negative).
example(e129,f6,negative).
example(e129,f7,negative).
example(e129,f8,negative).
example(e130,f1,negative).
example(e130,f2,negative).
example(e130,f3,negative).
example(e130,f4,negative).
example(e130,f5,negative).
example(e130,f6,negative).
example(e130,f7,negative).
example(e130,f8,negative).
example(e131,f1,negative).
example(e131,f2,negative).
example(e131,f3,negative).
example(e131,f4,negative).
example(e131,f5,negative).
example(e131,f6,negative).
example(e131,f7,negative).
example(e131,f8,negative).
example(e132,f1,negative).
example(e132,f2,negative).
example(e132,f3,negative).
example(e132,f4,negative).
example(e132,f5,negative).
example(e132,f6,negative).
example(e132,f7,positive).
example(e132,f8,negative).
example(e133,f1,negative).
example(e133,f2,negative).
example(e133,f3,negative).
example(e133,f4,negative).
example(e133,f5,negative).
example(e133,f6,negative).
example(e133,f7,negative).
example(e133,f8,negative).
example(e134,f1,negative).
example(e134,f2,negative).
example(e134,f3,negative).
example(e134,f4,negative).
example(e134,f5,negative).
example(e134,f6,negative).
example(e134,f7,negative).
example(e134,f8,negative).
example(e135,f1,negative).
example(e135,f2,negative).
example(e135,f3,negative).
example(e135,f4,negative).
example(e135,f5,negative).
example(e135,f6,negative).
example(e135,f7,negative).
example(e135,f8,negative).
example(e136,f1,negative).
example(e136,f2,negative).
example(e136,f3,negative).
example(e136,f4,negative).
example(e136,f5,negative).
example(e136,f6,negative).
example(e136,f7,negative).
example(e136,f8,negative).
example(e137,f1,negative).
example(e137,f2,negative).
example(e137,f3,negative).
example(e137,f4,negative).
example(e137,f5,negative).
example(e137,f6,negative).
example(e137,f7,negative).
example(e137,f8,negative).
example(e138,f1,negative).
example(e138,f2,negative).
example(e138,f3,negative).
example(e138,f4,negative).
example(e138,f5,negative).
example(e138,f6,negative).
example(e138,f7,negative).
example(e138,f8,negative).
example(e139,f1,negative).
example(e139,f2,negative).
example(e139,f3,negative).
example(e139,f4,negative).
example(e139,f5,negative).
example(e139,f6,negative).
example(e139,f7,negative).
example(e139,f8,negative).
example(e140,f1,negative).
example(e140,f2,negative).
example(e140,f3,negative).
example(e140,f4,negative).
example(e140,f5,negative).
example(e140,f6,negative).
example(e140,f7,negative).
example(e140,f8,negative).
example(e141,f1,negative).
example(e141,f2,negative).
example(e141,f3,negative).
example(e141,f4,negative).
example(e141,f5,negative).
example(e141,f6,negative).
example(e141,f7,negative).
example(e141,f8,negative).
example(e142,f1,negative).
example(e142,f2,negative).
example(e142,f3,negative).
example(e142,f4,negative).
example(e142,f5,negative).
example(e142,f6,negative).
example(e142,f7,negative).
example(e142,f8,negative).
example(e143,f1,negative).
example(e143,f2,negative).
example(e143,f3,negative).
example(e143,f4,negative).
example(e143,f5,negative).
example(e143,f6,negative).
example(e143,f7,negative).
example(e143,f8,negative).
example(e144,f1,negative).
example(e144,f2,negative).
example(e144,f3,negative).
example(e144,f4,negative).
example(e144,f5,negative).
example(e144,f6,negative).
example(e144,f7,negative).
example(e144,f8,negative).
example(e145,f1,negative).
example(e145,f2,negative).
example(e145,f3,negative).
example(e145,f4,negative).
example(e145,f5,negative).
example(e145,f6,negative).
example(e145,f7,negative).
example(e145,f8,negative).
example(e146,f1,negative).
example(e146,f2,negative).
example(e146,f3,negative).
example(e146,f4,negative).
example(e146,f5,negative).
example(e146,f6,negative).
example(e146,f7,negative).
example(e146,f8,negative).
example(e147,f1,negative).
example(e147,f2,negative).
example(e147,f3,negative).
example(e147,f4,negative).
example(e147,f5,negative).
example(e147,f6,negative).
example(e147,f7,negative).
example(e147,f8,negative).
example(e148,f1,negative).
example(e148,f2,negative).
example(e148,f3,negative).
example(e148,f4,negative).
example(e148,f5,negative).
example(e148,f6,negative).
example(e148,f7,positive).
example(e148,f8,negative).
example(e149,f1,negative).
example(e149,f2,negative).
example(e149,f3,negative).
example(e149,f4,negative).
example(e149,f5,negative).
example(e149,f6,negative).
example(e149,f7,negative).
example(e149,f8,negative).
example(e150,f1,negative).
example(e150,f2,negative).
example(e150,f3,negative).
example(e150,f4,negative).
example(e150,f5,negative).
example(e150,f6,negative).
example(e150,f7,negative).
example(e150,f8,negative).
example(e151,f1,positive).
example(e151,f2,negative).
example(e151,f3,negative).
example(e151,f4,negative).
example(e151,f5,negative).
example(e151,f6,negative).
example(e151,f7,negative).
example(e151,f8,negative).
example(e152,f1,negative).
example(e152,f2,negative).
example(e152,f3,negative).
example(e152,f4,negative).
example(e152,f5,negative).
example(e152,f6,negative).
example(e152,f7,negative).
example(e152,f8,negative).
example(e153,f1,negative).
example(e153,f2,negative).
example(e153,f3,negative).
example(e153,f4,negative).
example(e153,f5,negative).
example(e153,f6,negative).
example(e153,f7,positive).
example(e153,f8,negative).
example(e154,f1,positive).
example(e154,f2,negative).
example(e154,f3,negative).
example(e154,f4,negative).
example(e154,f5,negative).
example(e154,f6,negative).
example(e154,f7,negative).
example(e154,f8,negative).
example(e155,f1,negative).
example(e155,f2,negative).
example(e155,f3,negative).
example(e155,f4,negative).
example(e155,f5,negative).
example(e155,f6,negative).
example(e155,f7,negative).
example(e155,f8,negative).
example(e156,f1,negative).
example(e156,f2,negative).
example(e156,f3,negative).
example(e156,f4,negative).
example(e156,f5,negative).
example(e156,f6,negative).
example(e156,f7,negative).
example(e156,f8,negative).
example(e157,f1,negative).
example(e157,f2,negative).
example(e157,f3,negative).
example(e157,f4,negative).
example(e157,f5,negative).
example(e157,f6,negative).
example(e157,f7,negative).
example(e157,f8,negative).
example(e158,f1,positive).
example(e158,f2,negative).
example(e158,f3,negative).
example(e158,f4,negative).
example(e158,f5,negative).
example(e158,f6,negative).
example(e158,f7,negative).
example(e158,f8,negative).
example(e159,f1,negative).
example(e159,f2,negative).
example(e159,f3,negative).
example(e159,f4,negative).
example(e159,f5,negative).
example(e159,f6,negative).
example(e159,f7,negative).
example(e159,f8,negative).
example(e160,f1,negative).
example(e160,f2,negative).
example(e160,f3,negative).
example(e160,f4,negative).
example(e160,f5,negative).
example(e160,f6,negative).
example(e160,f7,negative).
example(e160,f8,negative).
example(e161,f1,negative).
example(e161,f2,negative).
example(e161,f3,negative).
example(e161,f4,negative).
example(e161,f5,negative).
example(e161,f6,negative).
example(e161,f7,negative).
example(e161,f8,negative).
example(e162,f1,negative).
example(e162,f2,negative).
example(e162,f3,negative).
example(e162,f4,negative).
example(e162,f5,negative).
example(e162,f6,negative).
example(e162,f7,negative).
example(e162,f8,negative).
example(e163,f1,negative).
example(e163,f2,negative).
example(e163,f3,negative).
example(e163,f4,negative).
example(e163,f5,negative).
example(e163,f6,negative).
example(e163,f7,negative).
example(e163,f8,negative).
example(e164,f1,negative).
example(e164,f2,negative).
example(e164,f3,negative).
example(e164,f4,negative).
example(e164,f5,negative).
example(e164,f6,negative).
example(e164,f7,negative).
example(e164,f8,negative).
example(e165,f1,negative).
example(e165,f2,negative).
example(e165,f3,negative).
example(e165,f4,negative).
example(e165,f5,negative).
example(e165,f6,negative).
example(e165,f7,negative).
example(e165,f8,negative).
example(e166,f1,negative).
example(e166,f2,negative).
example(e166,f3,negative).
example(e166,f4,negative).
example(e166,f5,negative).
example(e166,f6,negative).
example(e166,f7,negative).
example(e166,f8,negative).
example(e167,f1,negative).
example(e167,f2,negative).
example(e167,f3,negative).
example(e167,f4,negative).
example(e167,f5,negative).
example(e167,f6,negative).
example(e167,f7,negative).
example(e167,f8,negative).
example(e168,f1,negative).
example(e168,f2,negative).
example(e168,f3,negative).
example(e168,f4,negative).
example(e168,f5,negative).
example(e168,f6,negative).
example(e168,f7,negative).
example(e168,f8,negative).
example(e169,f1,negative).
example(e169,f2,negative).
example(e169,f3,negative).
example(e169,f4,negative).
example(e169,f5,negative).
example(e169,f6,negative).
example(e169,f7,negative).
example(e169,f8,negative).
example(e170,f1,negative).
example(e170,f2,negative).
example(e170,f3,negative).
example(e170,f4,negative).
example(e170,f5,negative).
example(e170,f6,negative).
example(e170,f7,negative).
example(e170,f8,negative).
example(e171,f1,negative).
example(e171,f2,negative).
example(e171,f3,negative).
example(e171,f4,negative).
example(e171,f5,negative).
example(e171,f6,negative).
example(e171,f7,negative).
example(e171,f8,negative).
example(e172,f1,negative).
example(e172,f2,negative).
example(e172,f3,negative).
example(e172,f4,negative).
example(e172,f5,negative).
example(e172,f6,negative).
example(e172,f7,negative).
example(e172,f8,negative).
example(e173,f1,negative).
example(e173,f2,negative).
example(e173,f3,negative).
example(e173,f4,negative).
example(e173,f5,negative).
example(e173,f6,negative).
example(e173,f7,negative).
example(e173,f8,negative).
example(e174,f1,positive).
example(e174,f2,negative).
example(e174,f3,negative).
example(e174,f4,negative).
example(e174,f5,negative).
example(e174,f6,negative).
example(e174,f7,negative).
example(e174,f8,negative).
example(e175,f1,negative).
example(e175,f2,negative).
example(e175,f3,negative).
example(e175,f4,negative).
example(e175,f5,negative).
example(e175,f6,negative).
example(e175,f7,negative).
example(e175,f8,negative).
example(e176,f1,negative).
example(e176,f2,negative).
example(e176,f3,negative).
example(e176,f4,negative).
example(e176,f5,negative).
example(e176,f6,negative).
example(e176,f7,negative).
example(e176,f8,negative).
example(e177,f1,negative).
example(e177,f2,negative).
example(e177,f3,negative).
example(e177,f4,negative).
example(e177,f5,negative).
example(e177,f6,negative).
example(e177,f7,negative).
example(e177,f8,negative).
example(e178,f1,negative).
example(e178,f2,negative).
example(e178,f3,negative).
example(e178,f4,negative).
example(e178,f5,negative).
example(e178,f6,negative).
example(e178,f7,negative).
example(e178,f8,negative).
example(e179,f1,negative).
example(e179,f2,negative).
example(e179,f3,negative).
example(e179,f4,negative).
example(e179,f5,negative).
example(e179,f6,negative).
example(e179,f7,negative).
example(e179,f8,negative).
example(e180,f1,negative).
example(e180,f2,negative).
example(e180,f3,negative).
example(e180,f4,negative).
example(e180,f5,negative).
example(e180,f6,negative).
example(e180,f7,negative).
example(e180,f8,negative).
example(e181,f1,negative).
example(e181,f2,negative).
example(e181,f3,negative).
example(e181,f4,negative).
example(e181,f5,negative).
example(e181,f6,negative).
example(e181,f7,negative).
example(e181,f8,negative).
example(e182,f1,negative).
example(e182,f2,negative).
example(e182,f3,negative).
example(e182,f4,negative).
example(e182,f5,negative).
example(e182,f6,negative).
example(e182,f7,negative).
example(e182,f8,negative).
example(e183,f1,positive).
example(e183,f2,negative).
example(e183,f3,negative).
example(e183,f4,negative).
example(e183,f5,negative).
example(e183,f6,negative).
example(e183,f7,negative).
example(e183,f8,negative).
example(e184,f1,negative).
example(e184,f2,negative).
example(e184,f3,negative).
example(e184,f4,negative).
example(e184,f5,negative).
example(e184,f6,negative).
example(e184,f7,negative).
example(e184,f8,negative).
example(e185,f1,negative).
example(e185,f2,negative).
example(e185,f3,negative).
example(e185,f4,negative).
example(e185,f5,negative).
example(e185,f6,negative).
example(e185,f7,negative).
example(e185,f8,negative).
example(e186,f1,negative).
example(e186,f2,negative).
example(e186,f3,negative).
example(e186,f4,negative).
example(e186,f5,negative).
example(e186,f6,negative).
example(e186,f7,negative).
example(e186,f8,negative).
example(e187,f1,negative).
example(e187,f2,negative).
example(e187,f3,negative).
example(e187,f4,negative).
example(e187,f5,negative).
example(e187,f6,negative).
example(e187,f7,negative).
example(e187,f8,negative).
example(e188,f1,positive).
example(e188,f2,negative).
example(e188,f3,negative).
example(e188,f4,negative).
example(e188,f5,negative).
example(e188,f6,negative).
example(e188,f7,positive).
example(e188,f8,negative).
example(e189,f1,negative).
example(e189,f2,negative).
example(e189,f3,negative).
example(e189,f4,negative).
example(e189,f5,negative).
example(e189,f6,negative).
example(e189,f7,negative).
example(e189,f8,negative).
example(e190,f1,negative).
example(e190,f2,negative).
example(e190,f3,negative).
example(e190,f4,negative).
example(e190,f5,negative).
example(e190,f6,negative).
example(e190,f7,negative).
example(e190,f8,negative).
example(e191,f1,negative).
example(e191,f2,negative).
example(e191,f3,negative).
example(e191,f4,negative).
example(e191,f5,negative).
example(e191,f6,negative).
example(e191,f7,negative).
example(e191,f8,negative).
example(e192,f1,negative).
example(e192,f2,negative).
example(e192,f3,negative).
example(e192,f4,negative).
example(e192,f5,negative).
example(e192,f6,negative).
example(e192,f7,negative).
example(e192,f8,negative).
example(e193,f1,negative).
example(e193,f2,negative).
example(e193,f3,negative).
example(e193,f4,negative).
example(e193,f5,negative).
example(e193,f6,negative).
example(e193,f7,negative).
example(e193,f8,negative).
example(e194,f1,negative).
example(e194,f2,negative).
example(e194,f3,negative).
example(e194,f4,negative).
example(e194,f5,negative).
example(e194,f6,negative).
example(e194,f7,negative).
example(e194,f8,negative).
example(e195,f1,negative).
example(e195,f2,negative).
example(e195,f3,negative).
example(e195,f4,negative).
example(e195,f5,negative).
example(e195,f6,negative).
example(e195,f7,negative).
example(e195,f8,negative).
example(e196,f1,negative).
example(e196,f2,negative).
example(e196,f3,negative).
example(e196,f4,negative).
example(e196,f5,negative).
example(e196,f6,negative).
example(e196,f7,negative).
example(e196,f8,negative).
example(e197,f1,positive).
example(e197,f2,negative).
example(e197,f3,negative).
example(e197,f4,negative).
example(e197,f5,negative).
example(e197,f6,negative).
example(e197,f7,negative).
example(e197,f8,negative).
example(e198,f1,negative).
example(e198,f2,negative).
example(e198,f3,negative).
example(e198,f4,negative).
example(e198,f5,negative).
example(e198,f6,negative).
example(e198,f7,negative).
example(e198,f8,negative).
example(e199,f1,negative).
example(e199,f2,negative).
example(e199,f3,negative).
example(e199,f4,negative).
example(e199,f5,negative).
example(e199,f6,negative).
example(e199,f7,negative).
example(e199,f8,negative).
example(e200,f1,negative).
example(e200,f2,negative).
example(e200,f3,negative).
example(e200,f4,negative).
example(e200,f5,negative).
example(e200,f6,negative).
example(e200,f7,negative).
example(e200,f8,negative).
example(e201,f1,negative).
example(e201,f2,negative).
example(e201,f3,negative).
example(e201,f4,negative).
example(e201,f5,negative).
example(e201,f6,negative).
example(e201,f7,negative).
example(e201,f8,negative).
example(e202,f1,positive).
example(e202,f2,negative).
example(e202,f3,negative).
example(e202,f4,negative).
example(e202,f5,negative).
example(e202,f6,negative).
example(e202,f7,negative).
example(e202,f8,negative).
example(e203,f1,negative).
example(e203,f2,negative).
example(e203,f3,negative).
example(e203,f4,negative).
example(e203,f5,negative).
example(e203,f6,negative).
example(e203,f7,negative).
example(e203,f8,negative).
example(e204,f1,negative).
example(e204,f2,negative).
example(e204,f3,negative).
example(e204,f4,negative).
example(e204,f5,negative).
example(e204,f6,negative).
example(e204,f7,negative).
example(e204,f8,negative).
example(e205,f1,negative).
example(e205,f2,negative).
example(e205,f3,negative).
example(e205,f4,negative).
example(e205,f5,negative).
example(e205,f6,negative).
example(e205,f7,negative).
example(e205,f8,negative).
example(e206,f1,negative).
example(e206,f2,negative).
example(e206,f3,negative).
example(e206,f4,negative).
example(e206,f5,negative).
example(e206,f6,negative).
example(e206,f7,negative).
example(e206,f8,negative).
example(e207,f1,negative).
example(e207,f2,negative).
example(e207,f3,negative).
example(e207,f4,negative).
example(e207,f5,negative).
example(e207,f6,negative).
example(e207,f7,negative).
example(e207,f8,negative).
example(e208,f1,negative).
example(e208,f2,negative).
example(e208,f3,negative).
example(e208,f4,negative).
example(e208,f5,negative).
example(e208,f6,negative).
example(e208,f7,negative).
example(e208,f8,negative).
example(e209,f1,positive).
example(e209,f2,negative).
example(e209,f3,negative).
example(e209,f4,negative).
example(e209,f5,negative).
example(e209,f6,negative).
example(e209,f7,negative).
example(e209,f8,negative).
example(e210,f1,negative).
example(e210,f2,negative).
example(e210,f3,negative).
example(e210,f4,negative).
example(e210,f5,negative).
example(e210,f6,negative).
example(e210,f7,negative).
example(e210,f8,negative).
example(e211,f1,negative).
example(e211,f2,negative).
example(e211,f3,negative).
example(e211,f4,negative).
example(e211,f5,negative).
example(e211,f6,negative).
example(e211,f7,negative).
example(e211,f8,negative).
example(e212,f1,negative).
example(e212,f2,negative).
example(e212,f3,negative).
example(e212,f4,negative).
example(e212,f5,negative).
example(e212,f6,negative).
example(e212,f7,negative).
example(e212,f8,negative).
example(e213,f1,negative).
example(e213,f2,negative).
example(e213,f3,negative).
example(e213,f4,negative).
example(e213,f5,negative).
example(e213,f6,negative).
example(e213,f7,negative).
example(e213,f8,negative).
example(e214,f1,negative).
example(e214,f2,negative).
example(e214,f3,negative).
example(e214,f4,negative).
example(e214,f5,negative).
example(e214,f6,negative).
example(e214,f7,negative).
example(e214,f8,negative).
example(e215,f1,negative).
example(e215,f2,negative).
example(e215,f3,negative).
example(e215,f4,negative).
example(e215,f5,negative).
example(e215,f6,negative).
example(e215,f7,negative).
example(e215,f8,negative).
example(e216,f1,negative).
example(e216,f2,negative).
example(e216,f3,negative).
example(e216,f4,negative).
example(e216,f5,negative).
example(e216,f6,negative).
example(e216,f7,negative).
example(e216,f8,negative).
example(e217,f1,negative).
example(e217,f2,negative).
example(e217,f3,negative).
example(e217,f4,negative).
example(e217,f5,negative).
example(e217,f6,negative).
example(e217,f7,negative).
example(e217,f8,negative).
example(e218,f1,negative).
example(e218,f2,negative).
example(e218,f3,negative).
example(e218,f4,negative).
example(e218,f5,negative).
example(e218,f6,negative).
example(e218,f7,negative).
example(e218,f8,negative).
example(e219,f1,negative).
example(e219,f2,negative).
example(e219,f3,negative).
example(e219,f4,negative).
example(e219,f5,negative).
example(e219,f6,negative).
example(e219,f7,positive).
example(e219,f8,negative).
example(e220,f1,negative).
example(e220,f2,negative).
example(e220,f3,negative).
example(e220,f4,negative).
example(e220,f5,negative).
example(e220,f6,negative).
example(e220,f7,negative).
example(e220,f8,negative).
example(e221,f1,negative).
example(e221,f2,negative).
example(e221,f3,negative).
example(e221,f4,negative).
example(e221,f5,negative).
example(e221,f6,negative).
example(e221,f7,positive).
example(e221,f8,negative).
example(e222,f1,negative).
example(e222,f2,negative).
example(e222,f3,negative).
example(e222,f4,negative).
example(e222,f5,negative).
example(e222,f6,negative).
example(e222,f7,negative).
example(e222,f8,negative).
example(e223,f1,negative).
example(e223,f2,negative).
example(e223,f3,negative).
example(e223,f4,negative).
example(e223,f5,negative).
example(e223,f6,negative).
example(e223,f7,negative).
example(e223,f8,negative).
example(e224,f1,negative).
example(e224,f2,negative).
example(e224,f3,negative).
example(e224,f4,negative).
example(e224,f5,negative).
example(e224,f6,negative).
example(e224,f7,negative).
example(e224,f8,negative).
example(e225,f1,positive).
example(e225,f2,negative).
example(e225,f3,negative).
example(e225,f4,negative).
example(e225,f5,negative).
example(e225,f6,negative).
example(e225,f7,negative).
example(e225,f8,negative).
example(e226,f1,positive).
example(e226,f2,negative).
example(e226,f3,negative).
example(e226,f4,negative).
example(e226,f5,negative).
example(e226,f6,negative).
example(e226,f7,negative).
example(e226,f8,negative).
example(e227,f1,negative).
example(e227,f2,negative).
example(e227,f3,negative).
example(e227,f4,negative).
example(e227,f5,negative).
example(e227,f6,negative).
example(e227,f7,negative).
example(e227,f8,negative).
example(e228,f1,negative).
example(e228,f2,negative).
example(e228,f3,negative).
example(e228,f4,negative).
example(e228,f5,negative).
example(e228,f6,negative).
example(e228,f7,negative).
example(e228,f8,negative).
example(e229,f1,negative).
example(e229,f2,negative).
example(e229,f3,negative).
example(e229,f4,negative).
example(e229,f5,negative).
example(e229,f6,negative).
example(e229,f7,negative).
example(e229,f8,negative).
example(e230,f1,negative).
example(e230,f2,negative).
example(e230,f3,negative).
example(e230,f4,negative).
example(e230,f5,negative).
example(e230,f6,negative).
example(e230,f7,negative).
example(e230,f8,negative).
example(e231,f1,negative).
example(e231,f2,negative).
example(e231,f3,negative).
example(e231,f4,negative).
example(e231,f5,negative).
example(e231,f6,negative).
example(e231,f7,negative).
example(e231,f8,negative).
example(e232,f1,negative).
example(e232,f2,negative).
example(e232,f3,negative).
example(e232,f4,negative).
example(e232,f5,negative).
example(e232,f6,negative).
example(e232,f7,negative).
example(e232,f8,negative).
example(e233,f1,positive).
example(e233,f2,negative).
example(e233,f3,negative).
example(e233,f4,negative).
example(e233,f5,negative).
example(e233,f6,negative).
example(e233,f7,negative).
example(e233,f8,negative).
example(e234,f1,negative).
example(e234,f2,negative).
example(e234,f3,negative).
example(e234,f4,negative).
example(e234,f5,negative).
example(e234,f6,negative).
example(e234,f7,negative).
example(e234,f8,negative).
example(e235,f1,negative).
example(e235,f2,negative).
example(e235,f3,negative).
example(e235,f4,negative).
example(e235,f5,negative).
example(e235,f6,negative).
example(e235,f7,negative).
example(e235,f8,negative).
example(e236,f1,negative).
example(e236,f2,negative).
example(e236,f3,negative).
example(e236,f4,negative).
example(e236,f5,negative).
example(e236,f6,negative).
example(e236,f7,negative).
example(e236,f8,negative).
example(e237,f1,negative).
example(e237,f2,negative).
example(e237,f3,negative).
example(e237,f4,negative).
example(e237,f5,negative).
example(e237,f6,negative).
example(e237,f7,negative).
example(e237,f8,negative).
example(e238,f1,negative).
example(e238,f2,negative).
example(e238,f3,negative).
example(e238,f4,negative).
example(e238,f5,negative).
example(e238,f6,negative).
example(e238,f7,negative).
example(e238,f8,negative).
example(e239,f1,negative).
example(e239,f2,negative).
example(e239,f3,negative).
example(e239,f4,negative).
example(e239,f5,negative).
example(e239,f6,negative).
example(e239,f7,negative).
example(e239,f8,negative).
example(e240,f1,negative).
example(e240,f2,negative).
example(e240,f3,negative).
example(e240,f4,negative).
example(e240,f5,negative).
example(e240,f6,negative).
example(e240,f7,negative).
example(e240,f8,negative).
example(e241,f1,positive).
example(e241,f2,negative).
example(e241,f3,negative).
example(e241,f4,negative).
example(e241,f5,negative).
example(e241,f6,negative).
example(e241,f7,negative).
example(e241,f8,negative).
example(e242,f1,negative).
example(e242,f2,negative).
example(e242,f3,negative).
example(e242,f4,negative).
example(e242,f5,negative).
example(e242,f6,negative).
example(e242,f7,negative).
example(e242,f8,negative).
example(e243,f1,negative).
example(e243,f2,negative).
example(e243,f3,negative).
example(e243,f4,negative).
example(e243,f5,negative).
example(e243,f6,negative).
example(e243,f7,negative).
example(e243,f8,negative).
example(e244,f1,negative).
example(e244,f2,negative).
example(e244,f3,negative).
example(e244,f4,negative).
example(e244,f5,negative).
example(e244,f6,negative).
example(e244,f7,positive).
example(e244,f8,negative).
example(e245,f1,negative).
example(e245,f2,negative).
example(e245,f3,negative).
example(e245,f4,negative).
example(e245,f5,negative).
example(e245,f6,negative).
example(e245,f7,negative).
example(e245,f8,negative).
example(e246,f1,negative).
example(e246,f2,negative).
example(e246,f3,negative).
example(e246,f4,negative).
example(e246,f5,negative).
example(e246,f6,negative).
example(e246,f7,positive).
example(e246,f8,negative).
example(e247,f1,negative).
example(e247,f2,negative).
example(e247,f3,negative).
example(e247,f4,negative).
example(e247,f5,negative).
example(e247,f6,negative).
example(e247,f7,negative).
example(e247,f8,negative).
example(e248,f1,negative).
example(e248,f2,negative).
example(e248,f3,negative).
example(e248,f4,negative).
example(e248,f5,negative).
example(e248,f6,negative).
example(e248,f7,negative).
example(e248,f8,negative).
example(e249,f1,negative).
example(e249,f2,negative).
example(e249,f3,negative).
example(e249,f4,negative).
example(e249,f5,negative).
example(e249,f6,negative).
example(e249,f7,negative).
example(e249,f8,negative).
example(e250,f1,positive).
example(e250,f2,negative).
example(e250,f3,negative).
example(e250,f4,negative).
example(e250,f5,negative).
example(e250,f6,negative).
example(e250,f7,negative).
example(e250,f8,negative).
example(e251,f1,negative).
example(e251,f2,negative).
example(e251,f3,negative).
example(e251,f4,negative).
example(e251,f5,negative).
example(e251,f6,negative).
example(e251,f7,negative).
example(e251,f8,negative).
example(e252,f1,negative).
example(e252,f2,negative).
example(e252,f3,negative).
example(e252,f4,negative).
example(e252,f5,negative).
example(e252,f6,negative).
example(e252,f7,negative).
example(e252,f8,negative).
example(e253,f1,negative).
example(e253,f2,negative).
example(e253,f3,negative).
example(e253,f4,negative).
example(e253,f5,negative).
example(e253,f6,negative).
example(e253,f7,negative).
example(e253,f8,negative).
example(e254,f1,negative).
example(e254,f2,negative).
example(e254,f3,negative).
example(e254,f4,negative).
example(e254,f5,negative).
example(e254,f6,negative).
example(e254,f7,negative).
example(e254,f8,negative).
example(e255,f1,negative).
example(e255,f2,negative).
example(e255,f3,negative).
example(e255,f4,negative).
example(e255,f5,negative).
example(e255,f6,negative).
example(e255,f7,negative).
example(e255,f8,negative).
example(e256,f1,positive).
example(e256,f2,negative).
example(e256,f3,negative).
example(e256,f4,negative).
example(e256,f5,negative).
example(e256,f6,negative).
example(e256,f7,negative).
example(e256,f8,negative).
example(e257,f1,negative).
example(e257,f2,negative).
example(e257,f3,negative).
example(e257,f4,negative).
example(e257,f5,negative).
example(e257,f6,negative).
example(e257,f7,negative).
example(e257,f8,negative).
example(e258,f1,negative).
example(e258,f2,negative).
example(e258,f3,negative).
example(e258,f4,negative).
example(e258,f5,negative).
example(e258,f6,negative).
example(e258,f7,negative).
example(e258,f8,negative).
example(e259,f1,positive).
example(e259,f2,negative).
example(e259,f3,negative).
example(e259,f4,negative).
example(e259,f5,negative).
example(e259,f6,negative).
example(e259,f7,negative).
example(e259,f8,negative).
example(e260,f1,negative).
example(e260,f2,negative).
example(e260,f3,negative).
example(e260,f4,negative).
example(e260,f5,negative).
example(e260,f6,negative).
example(e260,f7,positive).
example(e260,f8,negative).
example(e261,f1,negative).
example(e261,f2,negative).
example(e261,f3,negative).
example(e261,f4,negative).
example(e261,f5,negative).
example(e261,f6,negative).
example(e261,f7,negative).
example(e261,f8,negative).
example(e262,f1,negative).
example(e262,f2,negative).
example(e262,f3,negative).
example(e262,f4,negative).
example(e262,f5,negative).
example(e262,f6,negative).
example(e262,f7,negative).
example(e262,f8,negative).
example(e263,f1,negative).
example(e263,f2,negative).
example(e263,f3,negative).
example(e263,f4,negative).
example(e263,f5,negative).
example(e263,f6,negative).
example(e263,f7,negative).
example(e263,f8,negative).
example(e264,f1,negative).
example(e264,f2,negative).
example(e264,f3,negative).
example(e264,f4,negative).
example(e264,f5,negative).
example(e264,f6,negative).
example(e264,f7,negative).
example(e264,f8,negative).
example(e265,f1,negative).
example(e265,f2,negative).
example(e265,f3,negative).
example(e265,f4,negative).
example(e265,f5,negative).
example(e265,f6,negative).
example(e265,f7,negative).
example(e265,f8,negative).
example(e266,f1,negative).
example(e266,f2,negative).
example(e266,f3,negative).
example(e266,f4,negative).
example(e266,f5,negative).
example(e266,f6,negative).
example(e266,f7,negative).
example(e266,f8,negative).
example(e267,f1,negative).
example(e267,f2,negative).
example(e267,f3,negative).
example(e267,f4,negative).
example(e267,f5,negative).
example(e267,f6,negative).
example(e267,f7,negative).
example(e267,f8,negative).
example(e268,f1,negative).
example(e268,f2,negative).
example(e268,f3,negative).
example(e268,f4,negative).
example(e268,f5,negative).
example(e268,f6,negative).
example(e268,f7,positive).
example(e268,f8,negative).
example(e269,f1,negative).
example(e269,f2,negative).
example(e269,f3,negative).
example(e269,f4,negative).
example(e269,f5,negative).
example(e269,f6,negative).
example(e269,f7,negative).
example(e269,f8,negative).
example(e270,f1,negative).
example(e270,f2,negative).
example(e270,f3,negative).
example(e270,f4,negative).
example(e270,f5,negative).
example(e270,f6,negative).
example(e270,f7,negative).
example(e270,f8,negative).
example(e271,f1,negative).
example(e271,f2,negative).
example(e271,f3,negative).
example(e271,f4,negative).
example(e271,f5,negative).
example(e271,f6,negative).
example(e271,f7,positive).
example(e271,f8,negative).
example(e272,f1,negative).
example(e272,f2,negative).
example(e272,f3,negative).
example(e272,f4,negative).
example(e272,f5,negative).
example(e272,f6,negative).
example(e272,f7,negative).
example(e272,f8,negative).
example(e273,f1,negative).
example(e273,f2,negative).
example(e273,f3,negative).
example(e273,f4,negative).
example(e273,f5,negative).
example(e273,f6,negative).
example(e273,f7,negative).
example(e273,f8,negative).
example(e274,f1,positive).
example(e274,f2,negative).
example(e274,f3,negative).
example(e274,f4,negative).
example(e274,f5,negative).
example(e274,f6,negative).
example(e274,f7,negative).
example(e274,f8,negative).
example(e275,f1,negative).
example(e275,f2,negative).
example(e275,f3,negative).
example(e275,f4,negative).
example(e275,f5,negative).
example(e275,f6,negative).
example(e275,f7,negative).
example(e275,f8,negative).
example(e276,f1,negative).
example(e276,f2,negative).
example(e276,f3,negative).
example(e276,f4,negative).
example(e276,f5,negative).
example(e276,f6,negative).
example(e276,f7,negative).
example(e276,f8,negative).
example(e277,f1,negative).
example(e277,f2,negative).
example(e277,f3,negative).
example(e277,f4,negative).
example(e277,f5,negative).
example(e277,f6,negative).
example(e277,f7,negative).
example(e277,f8,negative).
example(e278,f1,negative).
example(e278,f2,negative).
example(e278,f3,negative).
example(e278,f4,negative).
example(e278,f5,negative).
example(e278,f6,negative).
example(e278,f7,negative).
example(e278,f8,negative).
example(e279,f1,negative).
example(e279,f2,negative).
example(e279,f3,negative).
example(e279,f4,negative).
example(e279,f5,negative).
example(e279,f6,negative).
example(e279,f7,negative).
example(e279,f8,negative).
example(e280,f1,negative).
example(e280,f2,negative).
example(e280,f3,negative).
example(e280,f4,negative).
example(e280,f5,negative).
example(e280,f6,negative).
example(e280,f7,negative).
example(e280,f8,negative).
example(e281,f1,negative).
example(e281,f2,negative).
example(e281,f3,negative).
example(e281,f4,negative).
example(e281,f5,negative).
example(e281,f6,negative).
example(e281,f7,negative).
example(e281,f8,negative).
example(e282,f1,negative).
example(e282,f2,negative).
example(e282,f3,negative).
example(e282,f4,negative).
example(e282,f5,negative).
example(e282,f6,negative).
example(e282,f7,negative).
example(e282,f8,negative).
example(e283,f1,negative).
example(e283,f2,negative).
example(e283,f3,negative).
example(e283,f4,negative).
example(e283,f5,negative).
example(e283,f6,negative).
example(e283,f7,negative).
example(e283,f8,negative).
example(e284,f1,negative).
example(e284,f2,negative).
example(e284,f3,negative).
example(e284,f4,negative).
example(e284,f5,negative).
example(e284,f6,negative).
example(e284,f7,negative).
example(e284,f8,negative).
example(e285,f1,negative).
example(e285,f2,negative).
example(e285,f3,negative).
example(e285,f4,negative).
example(e285,f5,negative).
example(e285,f6,negative).
example(e285,f7,negative).
example(e285,f8,negative).
example(e286,f1,negative).
example(e286,f2,negative).
example(e286,f3,negative).
example(e286,f4,negative).
example(e286,f5,negative).
example(e286,f6,negative).
example(e286,f7,negative).
example(e286,f8,negative).
example(e287,f1,negative).
example(e287,f2,negative).
example(e287,f3,negative).
example(e287,f4,negative).
example(e287,f5,negative).
example(e287,f6,negative).
example(e287,f7,negative).
example(e287,f8,negative).
example(e288,f1,positive).
example(e288,f2,negative).
example(e288,f3,negative).
example(e288,f4,negative).
example(e288,f5,negative).
example(e288,f6,negative).
example(e288,f7,negative).
example(e288,f8,negative).
example(e289,f1,negative).
example(e289,f2,negative).
example(e289,f3,negative).
example(e289,f4,negative).
example(e289,f5,negative).
example(e289,f6,negative).
example(e289,f7,negative).
example(e289,f8,negative).
example(e290,f1,negative).
example(e290,f2,negative).
example(e290,f3,negative).
example(e290,f4,negative).
example(e290,f5,negative).
example(e290,f6,negative).
example(e290,f7,negative).
example(e290,f8,negative).
example(e291,f1,negative).
example(e291,f2,negative).
example(e291,f3,negative).
example(e291,f4,negative).
example(e291,f5,negative).
example(e291,f6,negative).
example(e291,f7,negative).
example(e291,f8,negative).
example(e292,f1,negative).
example(e292,f2,negative).
example(e292,f3,negative).
example(e292,f4,negative).
example(e292,f5,negative).
example(e292,f6,negative).
example(e292,f7,negative).
example(e292,f8,negative).
example(e293,f1,negative).
example(e293,f2,negative).
example(e293,f3,negative).
example(e293,f4,negative).
example(e293,f5,negative).
example(e293,f6,negative).
example(e293,f7,positive).
example(e293,f8,negative).
example(e294,f1,positive).
example(e294,f2,negative).
example(e294,f3,negative).
example(e294,f4,negative).
example(e294,f5,negative).
example(e294,f6,negative).
example(e294,f7,negative).
example(e294,f8,negative).
example(e295,f1,negative).
example(e295,f2,negative).
example(e295,f3,negative).
example(e295,f4,negative).
example(e295,f5,negative).
example(e295,f6,negative).
example(e295,f7,negative).
example(e295,f8,negative).
example(e296,f1,negative).
example(e296,f2,negative).
example(e296,f3,negative).
example(e296,f4,negative).
example(e296,f5,negative).
example(e296,f6,negative).
example(e296,f7,negative).
example(e296,f8,negative).
example(e297,f1,negative).
example(e297,f2,negative).
example(e297,f3,negative).
example(e297,f4,negative).
example(e297,f5,negative).
example(e297,f6,negative).
example(e297,f7,negative).
example(e297,f8,negative).
example(e298,f1,negative).
example(e298,f2,negative).
example(e298,f3,negative).
example(e298,f4,negative).
example(e298,f5,negative).
example(e298,f6,negative).
example(e298,f7,negative).
example(e298,f8,negative).
example(e299,f1,negative).
example(e299,f2,negative).
example(e299,f3,negative).
example(e299,f4,negative).
example(e299,f5,negative).
example(e299,f6,negative).
example(e299,f7,negative).
example(e299,f8,negative).
example(e300,f1,negative).
example(e300,f2,negative).
example(e300,f3,negative).
example(e300,f4,negative).
example(e300,f5,negative).
example(e300,f6,negative).
example(e300,f7,negative).
example(e300,f8,negative).
example(e301,f1,negative).
example(e301,f2,negative).
example(e301,f3,negative).
example(e301,f4,negative).
example(e301,f5,negative).
example(e301,f6,negative).
example(e301,f7,negative).
example(e301,f8,negative).
example(e302,f1,negative).
example(e302,f2,negative).
example(e302,f3,negative).
example(e302,f4,negative).
example(e302,f5,negative).
example(e302,f6,negative).
example(e302,f7,negative).
example(e302,f8,negative).
example(e303,f1,negative).
example(e303,f2,negative).
example(e303,f3,negative).
example(e303,f4,negative).
example(e303,f5,negative).
example(e303,f6,negative).
example(e303,f7,negative).
example(e303,f8,negative).
example(e304,f1,negative).
example(e304,f2,negative).
example(e304,f3,negative).
example(e304,f4,negative).
example(e304,f5,negative).
example(e304,f6,negative).
example(e304,f7,negative).
example(e304,f8,negative).
example(e305,f1,negative).
example(e305,f2,negative).
example(e305,f3,negative).
example(e305,f4,negative).
example(e305,f5,negative).
example(e305,f6,negative).
example(e305,f7,negative).
example(e305,f8,negative).
example(e306,f1,negative).
example(e306,f2,negative).
example(e306,f3,negative).
example(e306,f4,negative).
example(e306,f5,negative).
example(e306,f6,negative).
example(e306,f7,negative).
example(e306,f8,negative).
example(e307,f1,negative).
example(e307,f2,negative).
example(e307,f3,negative).
example(e307,f4,negative).
example(e307,f5,negative).
example(e307,f6,negative).
example(e307,f7,negative).
example(e307,f8,negative).
example(e308,f1,negative).
example(e308,f2,negative).
example(e308,f3,negative).
example(e308,f4,negative).
example(e308,f5,negative).
example(e308,f6,negative).
example(e308,f7,negative).
example(e308,f8,negative).
example(e309,f1,negative).
example(e309,f2,negative).
example(e309,f3,negative).
example(e309,f4,negative).
example(e309,f5,negative).
example(e309,f6,negative).
example(e309,f7,positive).
example(e309,f8,negative).
example(e310,f1,negative).
example(e310,f2,negative).
example(e310,f3,negative).
example(e310,f4,negative).
example(e310,f5,negative).
example(e310,f6,negative).
example(e310,f7,negative).
example(e310,f8,negative).
example(e311,f1,negative).
example(e311,f2,negative).
example(e311,f3,negative).
example(e311,f4,negative).
example(e311,f5,negative).
example(e311,f6,negative).
example(e311,f7,negative).
example(e311,f8,negative).
example(e312,f1,negative).
example(e312,f2,negative).
example(e312,f3,negative).
example(e312,f4,negative).
example(e312,f5,negative).
example(e312,f6,negative).
example(e312,f7,negative).
example(e312,f8,negative).
example(e313,f1,negative).
example(e313,f2,negative).
example(e313,f3,negative).
example(e313,f4,negative).
example(e313,f5,negative).
example(e313,f6,negative).
example(e313,f7,negative).
example(e313,f8,negative).
example(e314,f1,negative).
example(e314,f2,negative).
example(e314,f3,negative).
example(e314,f4,negative).
example(e314,f5,negative).
example(e314,f6,negative).
example(e314,f7,negative).
example(e314,f8,negative).
example(e315,f1,negative).
example(e315,f2,negative).
example(e315,f3,negative).
example(e315,f4,negative).
example(e315,f5,negative).
example(e315,f6,negative).
example(e315,f7,positive).
example(e315,f8,negative).
example(e316,f1,negative).
example(e316,f2,negative).
example(e316,f3,negative).
example(e316,f4,negative).
example(e316,f5,negative).
example(e316,f6,negative).
example(e316,f7,negative).
example(e316,f8,negative).
example(e317,f1,negative).
example(e317,f2,negative).
example(e317,f3,negative).
example(e317,f4,negative).
example(e317,f5,negative).
example(e317,f6,negative).
example(e317,f7,negative).
example(e317,f8,negative).
example(e318,f1,negative).
example(e318,f2,negative).
example(e318,f3,negative).
example(e318,f4,negative).
example(e318,f5,negative).
example(e318,f6,negative).
example(e318,f7,negative).
example(e318,f8,negative).
example(e319,f1,negative).
example(e319,f2,negative).
example(e319,f3,negative).
example(e319,f4,negative).
example(e319,f5,negative).
example(e319,f6,negative).
example(e319,f7,negative).
example(e319,f8,negative).
example(e320,f1,negative).
example(e320,f2,negative).
example(e320,f3,negative).
example(e320,f4,negative).
example(e320,f5,negative).
example(e320,f6,negative).
example(e320,f7,negative).
example(e320,f8,negative).
example(e321,f1,negative).
example(e321,f2,negative).
example(e321,f3,negative).
example(e321,f4,negative).
example(e321,f5,negative).
example(e321,f6,negative).
example(e321,f7,negative).
example(e321,f8,negative).
example(e322,f1,negative).
example(e322,f2,negative).
example(e322,f3,negative).
example(e322,f4,negative).
example(e322,f5,negative).
example(e322,f6,negative).
example(e322,f7,negative).
example(e322,f8,negative).
example(e323,f1,negative).
example(e323,f2,negative).
example(e323,f3,negative).
example(e323,f4,negative).
example(e323,f5,negative).
example(e323,f6,negative).
example(e323,f7,negative).
example(e323,f8,negative).
example(e324,f1,negative).
example(e324,f2,negative).
example(e324,f3,negative).
example(e324,f4,negative).
example(e324,f5,negative).
example(e324,f6,negative).
example(e324,f7,negative).
example(e324,f8,negative).
example(e325,f1,negative).
example(e325,f2,negative).
example(e325,f3,negative).
example(e325,f4,negative).
example(e325,f5,negative).
example(e325,f6,negative).
example(e325,f7,negative).
example(e325,f8,negative).
example(e326,f1,positive).
example(e326,f2,negative).
example(e326,f3,negative).
example(e326,f4,negative).
example(e326,f5,negative).
example(e326,f6,negative).
example(e326,f7,negative).
example(e326,f8,negative).
example(e327,f1,positive).
example(e327,f2,negative).
example(e327,f3,negative).
example(e327,f4,negative).
example(e327,f5,negative).
example(e327,f6,negative).
example(e327,f7,negative).
example(e327,f8,negative).
example(e328,f1,negative).
example(e328,f2,negative).
example(e328,f3,negative).
example(e328,f4,negative).
example(e328,f5,negative).
example(e328,f6,negative).
example(e328,f7,negative).
example(e328,f8,negative).
example(e329,f1,negative).
example(e329,f2,negative).
example(e329,f3,negative).
example(e329,f4,negative).
example(e329,f5,negative).
example(e329,f6,negative).
example(e329,f7,negative).
example(e329,f8,negative).
example(e330,f1,negative).
example(e330,f2,negative).
example(e330,f3,negative).
example(e330,f4,negative).
example(e330,f5,negative).
example(e330,f6,negative).
example(e330,f7,negative).
example(e330,f8,negative).
example(e331,f1,negative).
example(e331,f2,negative).
example(e331,f3,negative).
example(e331,f4,negative).
example(e331,f5,negative).
example(e331,f6,negative).
example(e331,f7,positive).
example(e331,f8,negative).
example(e332,f1,negative).
example(e332,f2,negative).
example(e332,f3,negative).
example(e332,f4,negative).
example(e332,f5,negative).
example(e332,f6,negative).
example(e332,f7,negative).
example(e332,f8,negative).
example(e333,f1,positive).
example(e333,f2,negative).
example(e333,f3,negative).
example(e333,f4,negative).
example(e333,f5,negative).
example(e333,f6,negative).
example(e333,f7,negative).
example(e333,f8,negative).
example(e334,f1,negative).
example(e334,f2,negative).
example(e334,f3,negative).
example(e334,f4,negative).
example(e334,f5,negative).
example(e334,f6,negative).
example(e334,f7,negative).
example(e334,f8,negative).
example(e335,f1,positive).
example(e335,f2,negative).
example(e335,f3,negative).
example(e335,f4,negative).
example(e335,f5,negative).
example(e335,f6,negative).
example(e335,f7,negative).
example(e335,f8,negative).
example(e336,f1,negative).
example(e336,f2,negative).
example(e336,f3,negative).
example(e336,f4,negative).
example(e336,f5,negative).
example(e336,f6,negative).
example(e336,f7,negative).
example(e336,f8,negative).
example(e337,f1,negative).
example(e337,f2,negative).
example(e337,f3,negative).
example(e337,f4,negative).
example(e337,f5,negative).
example(e337,f6,negative).
example(e337,f7,negative).
example(e337,f8,negative).
example(e338,f1,negative).
example(e338,f2,negative).
example(e338,f3,negative).
example(e338,f4,negative).
example(e338,f5,negative).
example(e338,f6,negative).
example(e338,f7,negative).
example(e338,f8,negative).
example(e339,f1,negative).
example(e339,f2,negative).
example(e339,f3,negative).
example(e339,f4,negative).
example(e339,f5,negative).
example(e339,f6,negative).
example(e339,f7,negative).
example(e339,f8,negative).
example(e340,f1,negative).
example(e340,f2,negative).
example(e340,f3,negative).
example(e340,f4,negative).
example(e340,f5,negative).
example(e340,f6,negative).
example(e340,f7,negative).
example(e340,f8,negative).
example(e341,f1,positive).
example(e341,f2,negative).
example(e341,f3,negative).
example(e341,f4,negative).
example(e341,f5,negative).
example(e341,f6,negative).
example(e341,f7,negative).
example(e341,f8,negative).
example(e342,f1,positive).
example(e342,f2,negative).
example(e342,f3,negative).
example(e342,f4,negative).
example(e342,f5,negative).
example(e342,f6,negative).
example(e342,f7,negative).
example(e342,f8,negative).
example(e343,f1,positive).
example(e343,f2,negative).
example(e343,f3,negative).
example(e343,f4,negative).
example(e343,f5,negative).
example(e343,f6,negative).
example(e343,f7,negative).
example(e343,f8,negative).
example(e344,f1,negative).
example(e344,f2,negative).
example(e344,f3,negative).
example(e344,f4,negative).
example(e344,f5,negative).
example(e344,f6,negative).
example(e344,f7,negative).
example(e344,f8,negative).
example(e345,f1,negative).
example(e345,f2,negative).
example(e345,f3,negative).
example(e345,f4,negative).
example(e345,f5,negative).
example(e345,f6,negative).
example(e345,f7,negative).
example(e345,f8,negative).
example(e346,f1,negative).
example(e346,f2,negative).
example(e346,f3,negative).
example(e346,f4,negative).
example(e346,f5,negative).
example(e346,f6,negative).
example(e346,f7,negative).
example(e346,f8,negative).
example(e347,f1,positive).
example(e347,f2,negative).
example(e347,f3,negative).
example(e347,f4,negative).
example(e347,f5,negative).
example(e347,f6,negative).
example(e347,f7,negative).
example(e347,f8,negative).
example(e348,f1,negative).
example(e348,f2,negative).
example(e348,f3,negative).
example(e348,f4,negative).
example(e348,f5,negative).
example(e348,f6,negative).
example(e348,f7,negative).
example(e348,f8,negative).
example(e349,f1,negative).
example(e349,f2,negative).
example(e349,f3,negative).
example(e349,f4,negative).
example(e349,f5,negative).
example(e349,f6,negative).
example(e349,f7,negative).
example(e349,f8,negative).
example(e350,f1,negative).
example(e350,f2,negative).
example(e350,f3,negative).
example(e350,f4,negative).
example(e350,f5,negative).
example(e350,f6,negative).
example(e350,f7,negative).
example(e350,f8,negative).
example(e351,f1,negative).
example(e351,f2,negative).
example(e351,f3,negative).
example(e351,f4,negative).
example(e351,f5,negative).
example(e351,f6,negative).
example(e351,f7,negative).
example(e351,f8,negative).
example(e352,f1,negative).
example(e352,f2,negative).
example(e352,f3,negative).
example(e352,f4,negative).
example(e352,f5,negative).
example(e352,f6,negative).
example(e352,f7,negative).
example(e352,f8,negative).
example(e353,f1,negative).
example(e353,f2,negative).
example(e353,f3,negative).
example(e353,f4,negative).
example(e353,f5,negative).
example(e353,f6,negative).
example(e353,f7,negative).
example(e353,f8,negative).
example(e354,f1,positive).
example(e354,f2,negative).
example(e354,f3,negative).
example(e354,f4,negative).
example(e354,f5,negative).
example(e354,f6,negative).
example(e354,f7,negative).
example(e354,f8,negative).
example(e355,f1,negative).
example(e355,f2,negative).
example(e355,f3,negative).
example(e355,f4,negative).
example(e355,f5,negative).
example(e355,f6,negative).
example(e355,f7,negative).
example(e355,f8,negative).
example(e356,f1,negative).
example(e356,f2,negative).
example(e356,f3,negative).
example(e356,f4,negative).
example(e356,f5,negative).
example(e356,f6,negative).
example(e356,f7,negative).
example(e356,f8,negative).
example(e357,f1,positive).
example(e357,f2,negative).
example(e357,f3,negative).
example(e357,f4,negative).
example(e357,f5,negative).
example(e357,f6,negative).
example(e357,f7,negative).
example(e357,f8,negative).
example(e358,f1,negative).
example(e358,f2,negative).
example(e358,f3,negative).
example(e358,f4,negative).
example(e358,f5,negative).
example(e358,f6,negative).
example(e358,f7,negative).
example(e358,f8,negative).
example(e359,f1,negative).
example(e359,f2,negative).
example(e359,f3,negative).
example(e359,f4,negative).
example(e359,f5,negative).
example(e359,f6,negative).
example(e359,f7,negative).
example(e359,f8,negative).
example(e360,f1,positive).
example(e360,f2,negative).
example(e360,f3,negative).
example(e360,f4,negative).
example(e360,f5,negative).
example(e360,f6,negative).
example(e360,f7,negative).
example(e360,f8,negative).
example(e361,f1,negative).
example(e361,f2,negative).
example(e361,f3,negative).
example(e361,f4,negative).
example(e361,f5,negative).
example(e361,f6,negative).
example(e361,f7,negative).
example(e361,f8,negative).
example(e362,f1,negative).
example(e362,f2,negative).
example(e362,f3,negative).
example(e362,f4,negative).
example(e362,f5,negative).
example(e362,f6,negative).
example(e362,f7,negative).
example(e362,f8,negative).
example(e363,f1,negative).
example(e363,f2,negative).
example(e363,f3,negative).
example(e363,f4,negative).
example(e363,f5,negative).
example(e363,f6,negative).
example(e363,f7,negative).
example(e363,f8,negative).
example(e364,f1,negative).
example(e364,f2,negative).
example(e364,f3,negative).
example(e364,f4,negative).
example(e364,f5,negative).
example(e364,f6,negative).
example(e364,f7,negative).
example(e364,f8,negative).
example(e365,f1,negative).
example(e365,f2,negative).
example(e365,f3,negative).
example(e365,f4,negative).
example(e365,f5,negative).
example(e365,f6,negative).
example(e365,f7,negative).
example(e365,f8,negative).
example(e366,f1,negative).
example(e366,f2,negative).
example(e366,f3,negative).
example(e366,f4,negative).
example(e366,f5,negative).
example(e366,f6,negative).
example(e366,f7,negative).
example(e366,f8,negative).
example(e367,f1,negative).
example(e367,f2,negative).
example(e367,f3,negative).
example(e367,f4,negative).
example(e367,f5,negative).
example(e367,f6,negative).
example(e367,f7,negative).
example(e367,f8,negative).
example(e368,f1,negative).
example(e368,f2,negative).
example(e368,f3,negative).
example(e368,f4,negative).
example(e368,f5,negative).
example(e368,f6,negative).
example(e368,f7,negative).
example(e368,f8,negative).
example(e369,f1,negative).
example(e369,f2,negative).
example(e369,f3,negative).
example(e369,f4,negative).
example(e369,f5,negative).
example(e369,f6,negative).
example(e369,f7,negative).
example(e369,f8,negative).
example(e370,f1,positive).
example(e370,f2,negative).
example(e370,f3,negative).
example(e370,f4,negative).
example(e370,f5,negative).
example(e370,f6,negative).
example(e370,f7,negative).
example(e370,f8,negative).
example(e371,f1,negative).
example(e371,f2,negative).
example(e371,f3,negative).
example(e371,f4,negative).
example(e371,f5,negative).
example(e371,f6,negative).
example(e371,f7,negative).
example(e371,f8,negative).
example(e372,f1,negative).
example(e372,f2,negative).
example(e372,f3,negative).
example(e372,f4,negative).
example(e372,f5,negative).
example(e372,f6,negative).
example(e372,f7,positive).
example(e372,f8,negative).
example(e373,f1,negative).
example(e373,f2,negative).
example(e373,f3,negative).
example(e373,f4,negative).
example(e373,f5,negative).
example(e373,f6,negative).
example(e373,f7,negative).
example(e373,f8,negative).
example(e374,f1,negative).
example(e374,f2,negative).
example(e374,f3,negative).
example(e374,f4,negative).
example(e374,f5,negative).
example(e374,f6,negative).
example(e374,f7,negative).
example(e374,f8,negative).
example(e375,f1,negative).
example(e375,f2,negative).
example(e375,f3,negative).
example(e375,f4,negative).
example(e375,f5,negative).
example(e375,f6,negative).
example(e375,f7,negative).
example(e375,f8,negative).
example(e376,f1,negative).
example(e376,f2,negative).
example(e376,f3,negative).
example(e376,f4,negative).
example(e376,f5,negative).
example(e376,f6,negative).
example(e376,f7,negative).
example(e376,f8,negative).
example(e377,f1,negative).
example(e377,f2,negative).
example(e377,f3,negative).
example(e377,f4,negative).
example(e377,f5,negative).
example(e377,f6,negative).
example(e377,f7,negative).
example(e377,f8,negative).
example(e378,f1,positive).
example(e378,f2,negative).
example(e378,f3,negative).
example(e378,f4,negative).
example(e378,f5,negative).
example(e378,f6,negative).
example(e378,f7,negative).
example(e378,f8,negative).
example(e379,f1,negative).
example(e379,f2,negative).
example(e379,f3,negative).
example(e379,f4,negative).
example(e379,f5,negative).
example(e379,f6,negative).
example(e379,f7,negative).
example(e379,f8,negative).
example(e380,f1,negative).
example(e380,f2,negative).
example(e380,f3,negative).
example(e380,f4,negative).
example(e380,f5,negative).
example(e380,f6,negative).
example(e380,f7,positive).
example(e380,f8,negative).
example(e381,f1,positive).
example(e381,f2,negative).
example(e381,f3,negative).
example(e381,f4,negative).
example(e381,f5,negative).
example(e381,f6,negative).
example(e381,f7,negative).
example(e381,f8,negative).
example(e382,f1,negative).
example(e382,f2,negative).
example(e382,f3,negative).
example(e382,f4,negative).
example(e382,f5,negative).
example(e382,f6,negative).
example(e382,f7,negative).
example(e382,f8,negative).
example(e383,f1,positive).
example(e383,f2,negative).
example(e383,f3,negative).
example(e383,f4,negative).
example(e383,f5,negative).
example(e383,f6,negative).
example(e383,f7,negative).
example(e383,f8,negative).
example(e384,f1,positive).
example(e384,f2,negative).
example(e384,f3,negative).
example(e384,f4,negative).
example(e384,f5,negative).
example(e384,f6,negative).
example(e384,f7,positive).
example(e384,f8,negative).
example(e385,f1,positive).
example(e385,f2,negative).
example(e385,f3,negative).
example(e385,f4,negative).
example(e385,f5,negative).
example(e385,f6,negative).
example(e385,f7,negative).
example(e385,f8,negative).
example(e386,f1,positive).
example(e386,f2,negative).
example(e386,f3,negative).
example(e386,f4,negative).
example(e386,f5,negative).
example(e386,f6,negative).
example(e386,f7,negative).
example(e386,f8,negative).
example(e387,f1,negative).
example(e387,f2,negative).
example(e387,f3,negative).
example(e387,f4,negative).
example(e387,f5,negative).
example(e387,f6,negative).
example(e387,f7,negative).
example(e387,f8,negative).
example(e388,f1,negative).
example(e388,f2,negative).
example(e388,f3,negative).
example(e388,f4,negative).
example(e388,f5,negative).
example(e388,f6,negative).
example(e388,f7,negative).
example(e388,f8,negative).
example(e389,f1,negative).
example(e389,f2,negative).
example(e389,f3,negative).
example(e389,f4,negative).
example(e389,f5,negative).
example(e389,f6,negative).
example(e389,f7,negative).
example(e389,f8,negative).
example(e390,f1,negative).
example(e390,f2,negative).
example(e390,f3,negative).
example(e390,f4,negative).
example(e390,f5,negative).
example(e390,f6,negative).
example(e390,f7,negative).
example(e390,f8,negative).
example(e391,f1,positive).
example(e391,f2,negative).
example(e391,f3,negative).
example(e391,f4,negative).
example(e391,f5,negative).
example(e391,f6,negative).
example(e391,f7,negative).
example(e391,f8,negative).
example(e392,f1,negative).
example(e392,f2,negative).
example(e392,f3,negative).
example(e392,f4,negative).
example(e392,f5,negative).
example(e392,f6,negative).
example(e392,f7,negative).
example(e392,f8,negative).
example(e393,f1,positive).
example(e393,f2,negative).
example(e393,f3,negative).
example(e393,f4,negative).
example(e393,f5,negative).
example(e393,f6,negative).
example(e393,f7,negative).
example(e393,f8,negative).
example(e394,f1,negative).
example(e394,f2,negative).
example(e394,f3,negative).
example(e394,f4,negative).
example(e394,f5,negative).
example(e394,f6,negative).
example(e394,f7,negative).
example(e394,f8,negative).
example(e395,f1,negative).
example(e395,f2,negative).
example(e395,f3,negative).
example(e395,f4,negative).
example(e395,f5,negative).
example(e395,f6,negative).
example(e395,f7,negative).
example(e395,f8,negative).
example(e396,f1,negative).
example(e396,f2,negative).
example(e396,f3,negative).
example(e396,f4,negative).
example(e396,f5,negative).
example(e396,f6,negative).
example(e396,f7,positive).
example(e396,f8,negative).
example(e397,f1,negative).
example(e397,f2,negative).
example(e397,f3,negative).
example(e397,f4,negative).
example(e397,f5,negative).
example(e397,f6,negative).
example(e397,f7,negative).
example(e397,f8,negative).
example(e398,f1,negative).
example(e398,f2,negative).
example(e398,f3,negative).
example(e398,f4,negative).
example(e398,f5,negative).
example(e398,f6,negative).
example(e398,f7,negative).
example(e398,f8,negative).
example(e399,f1,negative).
example(e399,f2,negative).
example(e399,f3,negative).
example(e399,f4,negative).
example(e399,f5,negative).
example(e399,f6,negative).
example(e399,f7,negative).
example(e399,f8,negative).
example(e400,f1,negative).
example(e400,f2,negative).
example(e400,f3,negative).
example(e400,f4,negative).
example(e400,f5,negative).
example(e400,f6,negative).
example(e400,f7,negative).
example(e400,f8,negative).
example(e401,f1,negative).
example(e401,f2,negative).
example(e401,f3,negative).
example(e401,f4,negative).
example(e401,f5,negative).
example(e401,f6,negative).
example(e401,f7,negative).
example(e401,f8,negative).
example(e402,f1,negative).
example(e402,f2,negative).
example(e402,f3,negative).
example(e402,f4,negative).
example(e402,f5,negative).
example(e402,f6,negative).
example(e402,f7,negative).
example(e402,f8,negative).
example(e403,f1,negative).
example(e403,f2,negative).
example(e403,f3,negative).
example(e403,f4,negative).
example(e403,f5,negative).
example(e403,f6,negative).
example(e403,f7,negative).
example(e403,f8,negative).
example(e404,f1,negative).
example(e404,f2,negative).
example(e404,f3,negative).
example(e404,f4,negative).
example(e404,f5,negative).
example(e404,f6,negative).
example(e404,f7,negative).
example(e404,f8,negative).
example(e405,f1,negative).
example(e405,f2,negative).
example(e405,f3,negative).
example(e405,f4,negative).
example(e405,f5,negative).
example(e405,f6,negative).
example(e405,f7,negative).
example(e405,f8,negative).
example(e406,f1,negative).
example(e406,f2,negative).
example(e406,f3,negative).
example(e406,f4,negative).
example(e406,f5,negative).
example(e406,f6,negative).
example(e406,f7,negative).
example(e406,f8,negative).
example(e407,f1,negative).
example(e407,f2,negative).
example(e407,f3,negative).
example(e407,f4,negative).
example(e407,f5,negative).
example(e407,f6,negative).
example(e407,f7,negative).
example(e407,f8,negative).
example(e408,f1,negative).
example(e408,f2,negative).
example(e408,f3,negative).
example(e408,f4,negative).
example(e408,f5,negative).
example(e408,f6,negative).
example(e408,f7,negative).
example(e408,f8,negative).
example(e409,f1,negative).
example(e409,f2,negative).
example(e409,f3,negative).
example(e409,f4,negative).
example(e409,f5,negative).
example(e409,f6,negative).
example(e409,f7,positive).
example(e409,f8,negative).
example(e410,f1,positive).
example(e410,f2,negative).
example(e410,f3,negative).
example(e410,f4,negative).
example(e410,f5,negative).
example(e410,f6,negative).
example(e410,f7,negative).
example(e410,f8,negative).
example(e411,f1,negative).
example(e411,f2,negative).
example(e411,f3,negative).
example(e411,f4,negative).
example(e411,f5,negative).
example(e411,f6,negative).
example(e411,f7,negative).
example(e411,f8,negative).
example(e412,f1,positive).
example(e412,f2,negative).
example(e412,f3,negative).
example(e412,f4,negative).
example(e412,f5,negative).
example(e412,f6,negative).
example(e412,f7,negative).
example(e412,f8,negative).
example(e413,f1,positive).
example(e413,f2,negative).
example(e413,f3,negative).
example(e413,f4,negative).
example(e413,f5,negative).
example(e413,f6,negative).
example(e413,f7,positive).
example(e413,f8,negative).
example(e414,f1,positive).
example(e414,f2,negative).
example(e414,f3,negative).
example(e414,f4,negative).
example(e414,f5,negative).
example(e414,f6,negative).
example(e414,f7,negative).
example(e414,f8,negative).
example(e415,f1,negative).
example(e415,f2,negative).
example(e415,f3,negative).
example(e415,f4,negative).
example(e415,f5,negative).
example(e415,f6,negative).
example(e415,f7,negative).
example(e415,f8,negative).
example(e416,f1,negative).
example(e416,f2,negative).
example(e416,f3,negative).
example(e416,f4,negative).
example(e416,f5,negative).
example(e416,f6,negative).
example(e416,f7,negative).
example(e416,f8,negative).
example(e417,f1,positive).
example(e417,f2,negative).
example(e417,f3,negative).
example(e417,f4,negative).
example(e417,f5,negative).
example(e417,f6,negative).
example(e417,f7,positive).
example(e417,f8,negative).
example(e418,f1,negative).
example(e418,f2,negative).
example(e418,f3,negative).
example(e418,f4,negative).
example(e418,f5,negative).
example(e418,f6,negative).
example(e418,f7,negative).
example(e418,f8,negative).
example(e419,f1,positive).
example(e419,f2,negative).
example(e419,f3,negative).
example(e419,f4,negative).
example(e419,f5,negative).
example(e419,f6,negative).
example(e419,f7,negative).
example(e419,f8,negative).
example(e420,f1,negative).
example(e420,f2,negative).
example(e420,f3,negative).
example(e420,f4,negative).
example(e420,f5,negative).
example(e420,f6,negative).
example(e420,f7,negative).
example(e420,f8,negative).
example(e421,f1,positive).
example(e421,f2,negative).
example(e421,f3,negative).
example(e421,f4,negative).
example(e421,f5,negative).
example(e421,f6,negative).
example(e421,f7,negative).
example(e421,f8,negative).
example(e422,f1,negative).
example(e422,f2,negative).
example(e422,f3,negative).
example(e422,f4,negative).
example(e422,f5,negative).
example(e422,f6,negative).
example(e422,f7,negative).
example(e422,f8,negative).
example(e423,f1,negative).
example(e423,f2,negative).
example(e423,f3,negative).
example(e423,f4,negative).
example(e423,f5,negative).
example(e423,f6,negative).
example(e423,f7,negative).
example(e423,f8,negative).
example(e424,f1,negative).
example(e424,f2,negative).
example(e424,f3,negative).
example(e424,f4,negative).
example(e424,f5,negative).
example(e424,f6,negative).
example(e424,f7,negative).
example(e424,f8,negative).
example(e425,f1,negative).
example(e425,f2,negative).
example(e425,f3,negative).
example(e425,f4,negative).
example(e425,f5,negative).
example(e425,f6,negative).
example(e425,f7,negative).
example(e425,f8,negative).
example(e426,f1,negative).
example(e426,f2,negative).
example(e426,f3,negative).
example(e426,f4,negative).
example(e426,f5,negative).
example(e426,f6,negative).
example(e426,f7,negative).
example(e426,f8,negative).
example(e427,f1,negative).
example(e427,f2,negative).
example(e427,f3,negative).
example(e427,f4,negative).
example(e427,f5,negative).
example(e427,f6,negative).
example(e427,f7,negative).
example(e427,f8,negative).
example(e428,f1,positive).
example(e428,f2,negative).
example(e428,f3,negative).
example(e428,f4,negative).
example(e428,f5,negative).
example(e428,f6,negative).
example(e428,f7,negative).
example(e428,f8,negative).
example(e429,f1,negative).
example(e429,f2,negative).
example(e429,f3,negative).
example(e429,f4,negative).
example(e429,f5,negative).
example(e429,f6,negative).
example(e429,f7,negative).
example(e429,f8,negative).
example(e430,f1,positive).
example(e430,f2,negative).
example(e430,f3,negative).
example(e430,f4,negative).
example(e430,f5,negative).
example(e430,f6,negative).
example(e430,f7,negative).
example(e430,f8,negative).
example(e431,f1,negative).
example(e431,f2,negative).
example(e431,f3,negative).
example(e431,f4,negative).
example(e431,f5,negative).
example(e431,f6,negative).
example(e431,f7,negative).
example(e431,f8,negative).
example(e432,f1,negative).
example(e432,f2,negative).
example(e432,f3,negative).
example(e432,f4,negative).
example(e432,f5,negative).
example(e432,f6,negative).
example(e432,f7,negative).
example(e432,f8,negative).
example(e433,f1,positive).
example(e433,f2,negative).
example(e433,f3,negative).
example(e433,f4,negative).
example(e433,f5,negative).
example(e433,f6,negative).
example(e433,f7,negative).
example(e433,f8,negative).
example(e434,f1,negative).
example(e434,f2,negative).
example(e434,f3,negative).
example(e434,f4,negative).
example(e434,f5,negative).
example(e434,f6,negative).
example(e434,f7,negative).
example(e434,f8,negative).
example(e435,f1,positive).
example(e435,f2,negative).
example(e435,f3,negative).
example(e435,f4,negative).
example(e435,f5,negative).
example(e435,f6,negative).
example(e435,f7,positive).
example(e435,f8,negative).
example(e436,f1,negative).
example(e436,f2,negative).
example(e436,f3,negative).
example(e436,f4,negative).
example(e436,f5,negative).
example(e436,f6,negative).
example(e436,f7,negative).
example(e436,f8,negative).
example(e437,f1,negative).
example(e437,f2,negative).
example(e437,f3,negative).
example(e437,f4,negative).
example(e437,f5,negative).
example(e437,f6,negative).
example(e437,f7,negative).
example(e437,f8,negative).
example(e438,f1,negative).
example(e438,f2,negative).
example(e438,f3,negative).
example(e438,f4,negative).
example(e438,f5,negative).
example(e438,f6,negative).
example(e438,f7,negative).
example(e438,f8,negative).
example(e439,f1,positive).
example(e439,f2,negative).
example(e439,f3,negative).
example(e439,f4,negative).
example(e439,f5,negative).
example(e439,f6,negative).
example(e439,f7,negative).
example(e439,f8,negative).
example(e440,f1,negative).
example(e440,f2,negative).
example(e440,f3,negative).
example(e440,f4,negative).
example(e440,f5,negative).
example(e440,f6,negative).
example(e440,f7,negative).
example(e440,f8,negative).
example(e441,f1,negative).
example(e441,f2,negative).
example(e441,f3,negative).
example(e441,f4,negative).
example(e441,f5,negative).
example(e441,f6,negative).
example(e441,f7,negative).
example(e441,f8,negative).
example(e442,f1,negative).
example(e442,f2,negative).
example(e442,f3,negative).
example(e442,f4,negative).
example(e442,f5,negative).
example(e442,f6,negative).
example(e442,f7,negative).
example(e442,f8,negative).
example(e443,f1,negative).
example(e443,f2,negative).
example(e443,f3,negative).
example(e443,f4,negative).
example(e443,f5,negative).
example(e443,f6,negative).
example(e443,f7,negative).
example(e443,f8,negative).
example(e444,f1,negative).
example(e444,f2,negative).
example(e444,f3,negative).
example(e444,f4,negative).
example(e444,f5,negative).
example(e444,f6,negative).
example(e444,f7,negative).
example(e444,f8,negative).
example(e445,f1,negative).
example(e445,f2,negative).
example(e445,f3,negative).
example(e445,f4,negative).
example(e445,f5,negative).
example(e445,f6,negative).
example(e445,f7,negative).
example(e445,f8,negative).
example(e446,f1,negative).
example(e446,f2,negative).
example(e446,f3,negative).
example(e446,f4,negative).
example(e446,f5,negative).
example(e446,f6,negative).
example(e446,f7,negative).
example(e446,f8,negative).
example(e447,f1,positive).
example(e447,f2,negative).
example(e447,f3,negative).
example(e447,f4,negative).
example(e447,f5,negative).
example(e447,f6,negative).
example(e447,f7,negative).
example(e447,f8,negative).
example(e448,f1,negative).
example(e448,f2,negative).
example(e448,f3,negative).
example(e448,f4,negative).
example(e448,f5,negative).
example(e448,f6,negative).
example(e448,f7,negative).
example(e448,f8,negative).
example(e449,f1,negative).
example(e449,f2,negative).
example(e449,f3,negative).
example(e449,f4,negative).
example(e449,f5,negative).
example(e449,f6,negative).
example(e449,f7,negative).
example(e449,f8,negative).
example(e450,f1,negative).
example(e450,f2,negative).
example(e450,f3,negative).
example(e450,f4,negative).
example(e450,f5,negative).
example(e450,f6,negative).
example(e450,f7,negative).
example(e450,f8,negative).
example(e451,f1,positive).
example(e451,f2,negative).
example(e451,f3,negative).
example(e451,f4,negative).
example(e451,f5,negative).
example(e451,f6,negative).
example(e451,f7,negative).
example(e451,f8,negative).
example(e452,f1,negative).
example(e452,f2,negative).
example(e452,f3,negative).
example(e452,f4,negative).
example(e452,f5,negative).
example(e452,f6,negative).
example(e452,f7,negative).
example(e452,f8,negative).
example(e453,f1,negative).
example(e453,f2,negative).
example(e453,f3,negative).
example(e453,f4,negative).
example(e453,f5,negative).
example(e453,f6,negative).
example(e453,f7,negative).
example(e453,f8,negative).
example(e454,f1,negative).
example(e454,f2,negative).
example(e454,f3,negative).
example(e454,f4,negative).
example(e454,f5,negative).
example(e454,f6,negative).
example(e454,f7,negative).
example(e454,f8,negative).
example(e455,f1,negative).
example(e455,f2,negative).
example(e455,f3,negative).
example(e455,f4,negative).
example(e455,f5,negative).
example(e455,f6,negative).
example(e455,f7,negative).
example(e455,f8,negative).
example(e456,f1,negative).
example(e456,f2,negative).
example(e456,f3,negative).
example(e456,f4,negative).
example(e456,f5,negative).
example(e456,f6,negative).
example(e456,f7,negative).
example(e456,f8,negative).
example(e457,f1,positive).
example(e457,f2,negative).
example(e457,f3,negative).
example(e457,f4,negative).
example(e457,f5,negative).
example(e457,f6,negative).
example(e457,f7,negative).
example(e457,f8,negative).
example(e458,f1,negative).
example(e458,f2,negative).
example(e458,f3,negative).
example(e458,f4,negative).
example(e458,f5,negative).
example(e458,f6,negative).
example(e458,f7,negative).
example(e458,f8,negative).
example(e459,f1,negative).
example(e459,f2,negative).
example(e459,f3,negative).
example(e459,f4,negative).
example(e459,f5,negative).
example(e459,f6,negative).
example(e459,f7,positive).
example(e459,f8,negative).
example(e460,f1,negative).
example(e460,f2,negative).
example(e460,f3,negative).
example(e460,f4,negative).
example(e460,f5,negative).
example(e460,f6,negative).
example(e460,f7,negative).
example(e460,f8,negative).
example(e461,f1,negative).
example(e461,f2,negative).
example(e461,f3,negative).
example(e461,f4,negative).
example(e461,f5,negative).
example(e461,f6,negative).
example(e461,f7,negative).
example(e461,f8,negative).
example(e462,f1,positive).
example(e462,f2,negative).
example(e462,f3,negative).
example(e462,f4,negative).
example(e462,f5,negative).
example(e462,f6,negative).
example(e462,f7,negative).
example(e462,f8,negative).
example(e463,f1,negative).
example(e463,f2,negative).
example(e463,f3,negative).
example(e463,f4,negative).
example(e463,f5,negative).
example(e463,f6,negative).
example(e463,f7,negative).
example(e463,f8,negative).
example(e464,f1,negative).
example(e464,f2,negative).
example(e464,f3,negative).
example(e464,f4,negative).
example(e464,f5,negative).
example(e464,f6,negative).
example(e464,f7,negative).
example(e464,f8,negative).
example(e465,f1,negative).
example(e465,f2,negative).
example(e465,f3,negative).
example(e465,f4,negative).
example(e465,f5,negative).
example(e465,f6,negative).
example(e465,f7,positive).
example(e465,f8,negative).
example(e466,f1,negative).
example(e466,f2,negative).
example(e466,f3,negative).
example(e466,f4,negative).
example(e466,f5,negative).
example(e466,f6,negative).
example(e466,f7,negative).
example(e466,f8,negative).
example(e467,f1,negative).
example(e467,f2,negative).
example(e467,f3,negative).
example(e467,f4,negative).
example(e467,f5,negative).
example(e467,f6,negative).
example(e467,f7,negative).
example(e467,f8,negative).
example(e468,f1,negative).
example(e468,f2,negative).
example(e468,f3,negative).
example(e468,f4,negative).
example(e468,f5,negative).
example(e468,f6,negative).
example(e468,f7,negative).
example(e468,f8,negative).
example(e469,f1,negative).
example(e469,f2,negative).
example(e469,f3,negative).
example(e469,f4,negative).
example(e469,f5,negative).
example(e469,f6,negative).
example(e469,f7,negative).
example(e469,f8,negative).
example(e470,f1,negative).
example(e470,f2,negative).
example(e470,f3,negative).
example(e470,f4,negative).
example(e470,f5,negative).
example(e470,f6,negative).
example(e470,f7,negative).
example(e470,f8,negative).
example(e471,f1,positive).
example(e471,f2,negative).
example(e471,f3,negative).
example(e471,f4,negative).
example(e471,f5,negative).
example(e471,f6,negative).
example(e471,f7,negative).
example(e471,f8,negative).
example(e472,f1,negative).
example(e472,f2,negative).
example(e472,f3,negative).
example(e472,f4,negative).
example(e472,f5,negative).
example(e472,f6,negative).
example(e472,f7,negative).
example(e472,f8,negative).
example(e473,f1,negative).
example(e473,f2,negative).
example(e473,f3,negative).
example(e473,f4,negative).
example(e473,f5,negative).
example(e473,f6,negative).
example(e473,f7,negative).
example(e473,f8,negative).
example(e474,f1,negative).
example(e474,f2,negative).
example(e474,f3,negative).
example(e474,f4,negative).
example(e474,f5,negative).
example(e474,f6,negative).
example(e474,f7,negative).
example(e474,f8,negative).
example(e475,f1,negative).
example(e475,f2,negative).
example(e475,f3,negative).
example(e475,f4,negative).
example(e475,f5,negative).
example(e475,f6,negative).
example(e475,f7,negative).
example(e475,f8,negative).
example(e476,f1,negative).
example(e476,f2,negative).
example(e476,f3,negative).
example(e476,f4,negative).
example(e476,f5,negative).
example(e476,f6,negative).
example(e476,f7,negative).
example(e476,f8,negative).
example(e477,f1,negative).
example(e477,f2,negative).
example(e477,f3,negative).
example(e477,f4,negative).
example(e477,f5,negative).
example(e477,f6,negative).
example(e477,f7,negative).
example(e477,f8,negative).
example(e478,f1,negative).
example(e478,f2,negative).
example(e478,f3,negative).
example(e478,f4,negative).
example(e478,f5,negative).
example(e478,f6,negative).
example(e478,f7,negative).
example(e478,f8,negative).
example(e479,f1,negative).
example(e479,f2,negative).
example(e479,f3,negative).
example(e479,f4,negative).
example(e479,f5,negative).
example(e479,f6,negative).
example(e479,f7,negative).
example(e479,f8,negative).
example(e480,f1,negative).
example(e480,f2,negative).
example(e480,f3,negative).
example(e480,f4,negative).
example(e480,f5,negative).
example(e480,f6,negative).
example(e480,f7,negative).
example(e480,f8,negative).
example(e481,f1,negative).
example(e481,f2,negative).
example(e481,f3,negative).
example(e481,f4,negative).
example(e481,f5,negative).
example(e481,f6,negative).
example(e481,f7,negative).
example(e481,f8,negative).
example(e482,f1,negative).
example(e482,f2,negative).
example(e482,f3,negative).
example(e482,f4,negative).
example(e482,f5,negative).
example(e482,f6,negative).
example(e482,f7,negative).
example(e482,f8,negative).
example(e483,f1,negative).
example(e483,f2,negative).
example(e483,f3,negative).
example(e483,f4,negative).
example(e483,f5,negative).
example(e483,f6,negative).
example(e483,f7,negative).
example(e483,f8,negative).
example(e484,f1,negative).
example(e484,f2,negative).
example(e484,f3,negative).
example(e484,f4,negative).
example(e484,f5,negative).
example(e484,f6,negative).
example(e484,f7,negative).
example(e484,f8,negative).
example(e485,f1,negative).
example(e485,f2,negative).
example(e485,f3,negative).
example(e485,f4,negative).
example(e485,f5,negative).
example(e485,f6,negative).
example(e485,f7,negative).
example(e485,f8,negative).
example(e486,f1,negative).
example(e486,f2,negative).
example(e486,f3,negative).
example(e486,f4,negative).
example(e486,f5,negative).
example(e486,f6,negative).
example(e486,f7,negative).
example(e486,f8,negative).
example(e487,f1,positive).
example(e487,f2,negative).
example(e487,f3,negative).
example(e487,f4,negative).
example(e487,f5,negative).
example(e487,f6,negative).
example(e487,f7,negative).
example(e487,f8,negative).
example(e488,f1,negative).
example(e488,f2,negative).
example(e488,f3,negative).
example(e488,f4,negative).
example(e488,f5,negative).
example(e488,f6,negative).
example(e488,f7,positive).
example(e488,f8,negative).
example(e489,f1,negative).
example(e489,f2,negative).
example(e489,f3,negative).
example(e489,f4,negative).
example(e489,f5,negative).
example(e489,f6,negative).
example(e489,f7,negative).
example(e489,f8,negative).
example(e490,f1,negative).
example(e490,f2,negative).
example(e490,f3,negative).
example(e490,f4,negative).
example(e490,f5,negative).
example(e490,f6,negative).
example(e490,f7,negative).
example(e490,f8,negative).
example(e491,f1,negative).
example(e491,f2,negative).
example(e491,f3,negative).
example(e491,f4,negative).
example(e491,f5,negative).
example(e491,f6,negative).
example(e491,f7,negative).
example(e491,f8,negative).
example(e492,f1,negative).
example(e492,f2,negative).
example(e492,f3,negative).
example(e492,f4,negative).
example(e492,f5,negative).
example(e492,f6,negative).
example(e492,f7,negative).
example(e492,f8,negative).
example(e493,f1,negative).
example(e493,f2,negative).
example(e493,f3,negative).
example(e493,f4,negative).
example(e493,f5,negative).
example(e493,f6,negative).
example(e493,f7,negative).
example(e493,f8,negative).
example(e494,f1,negative).
example(e494,f2,negative).
example(e494,f3,negative).
example(e494,f4,negative).
example(e494,f5,negative).
example(e494,f6,negative).
example(e494,f7,positive).
example(e494,f8,negative).
example(e495,f1,negative).
example(e495,f2,negative).
example(e495,f3,negative).
example(e495,f4,negative).
example(e495,f5,negative).
example(e495,f6,negative).
example(e495,f7,negative).
example(e495,f8,negative).
example(e496,f1,negative).
example(e496,f2,negative).
example(e496,f3,negative).
example(e496,f4,negative).
example(e496,f5,negative).
example(e496,f6,negative).
example(e496,f7,negative).
example(e496,f8,negative).
example(e497,f1,negative).
example(e497,f2,negative).
example(e497,f3,negative).
example(e497,f4,negative).
example(e497,f5,negative).
example(e497,f6,negative).
example(e497,f7,negative).
example(e497,f8,negative).
example(e498,f1,negative).
example(e498,f2,negative).
example(e498,f3,negative).
example(e498,f4,negative).
example(e498,f5,negative).
example(e498,f6,negative).
example(e498,f7,negative).
example(e498,f8,negative).
example(e499,f1,negative).
example(e499,f2,negative).
example(e499,f3,negative).
example(e499,f4,negative).
example(e499,f5,negative).
example(e499,f6,negative).
example(e499,f7,negative).
example(e499,f8,negative).
example(e500,f1,negative).
example(e500,f2,negative).
example(e500,f3,negative).
example(e500,f4,negative).
example(e500,f5,negative).
example(e500,f6,negative).
example(e500,f7,negative).
example(e500,f8,negative).
example(e501,f1,negative).
example(e501,f2,negative).
example(e501,f3,negative).
example(e501,f4,negative).
example(e501,f5,negative).
example(e501,f6,negative).
example(e501,f7,negative).
example(e501,f8,negative).
example(e502,f1,negative).
example(e502,f2,negative).
example(e502,f3,negative).
example(e502,f4,negative).
example(e502,f5,negative).
example(e502,f6,negative).
example(e502,f7,negative).
example(e502,f8,negative).
example(e503,f1,negative).
example(e503,f2,negative).
example(e503,f3,negative).
example(e503,f4,negative).
example(e503,f5,negative).
example(e503,f6,negative).
example(e503,f7,negative).
example(e503,f8,negative).
example(e504,f1,negative).
example(e504,f2,negative).
example(e504,f3,negative).
example(e504,f4,negative).
example(e504,f5,negative).
example(e504,f6,negative).
example(e504,f7,negative).
example(e504,f8,negative).
example(e505,f1,negative).
example(e505,f2,negative).
example(e505,f3,negative).
example(e505,f4,negative).
example(e505,f5,negative).
example(e505,f6,negative).
example(e505,f7,negative).
example(e505,f8,negative).
example(e506,f1,negative).
example(e506,f2,negative).
example(e506,f3,negative).
example(e506,f4,negative).
example(e506,f5,negative).
example(e506,f6,negative).
example(e506,f7,negative).
example(e506,f8,negative).
example(e507,f1,negative).
example(e507,f2,negative).
example(e507,f3,negative).
example(e507,f4,negative).
example(e507,f5,negative).
example(e507,f6,negative).
example(e507,f7,negative).
example(e507,f8,negative).
example(e508,f1,positive).
example(e508,f2,negative).
example(e508,f3,negative).
example(e508,f4,negative).
example(e508,f5,negative).
example(e508,f6,negative).
example(e508,f7,negative).
example(e508,f8,negative).
example(e509,f1,negative).
example(e509,f2,negative).
example(e509,f3,negative).
example(e509,f4,negative).
example(e509,f5,negative).
example(e509,f6,negative).
example(e509,f7,negative).
example(e509,f8,negative).
example(e510,f1,negative).
example(e510,f2,negative).
example(e510,f3,negative).
example(e510,f4,negative).
example(e510,f5,negative).
example(e510,f6,negative).
example(e510,f7,negative).
example(e510,f8,negative).
example(e511,f1,negative).
example(e511,f2,negative).
example(e511,f3,negative).
example(e511,f4,negative).
example(e511,f5,negative).
example(e511,f6,negative).
example(e511,f7,negative).
example(e511,f8,negative).
example(e512,f1,negative).
example(e512,f2,negative).
example(e512,f3,negative).
example(e512,f4,negative).
example(e512,f5,negative).
example(e512,f6,negative).
example(e512,f7,negative).
example(e512,f8,negative).
example(e513,f1,negative).
example(e513,f2,negative).
example(e513,f3,negative).
example(e513,f4,negative).
example(e513,f5,negative).
example(e513,f6,negative).
example(e513,f7,negative).
example(e513,f8,negative).
example(e514,f1,negative).
example(e514,f2,negative).
example(e514,f3,negative).
example(e514,f4,negative).
example(e514,f5,negative).
example(e514,f6,negative).
example(e514,f7,negative).
example(e514,f8,negative).
example(e515,f1,negative).
example(e515,f2,negative).
example(e515,f3,negative).
example(e515,f4,negative).
example(e515,f5,negative).
example(e515,f6,negative).
example(e515,f7,negative).
example(e515,f8,negative).
example(e516,f1,negative).
example(e516,f2,negative).
example(e516,f3,negative).
example(e516,f4,negative).
example(e516,f5,negative).
example(e516,f6,negative).
example(e516,f7,negative).
example(e516,f8,negative).
example(e517,f1,negative).
example(e517,f2,negative).
example(e517,f3,negative).
example(e517,f4,negative).
example(e517,f5,negative).
example(e517,f6,negative).
example(e517,f7,negative).
example(e517,f8,negative).
example(e518,f1,negative).
example(e518,f2,negative).
example(e518,f3,negative).
example(e518,f4,negative).
example(e518,f5,negative).
example(e518,f6,negative).
example(e518,f7,negative).
example(e518,f8,negative).
example(e519,f1,negative).
example(e519,f2,negative).
example(e519,f3,negative).
example(e519,f4,negative).
example(e519,f5,negative).
example(e519,f6,negative).
example(e519,f7,negative).
example(e519,f8,negative).
example(e520,f1,negative).
example(e520,f2,negative).
example(e520,f3,negative).
example(e520,f4,negative).
example(e520,f5,negative).
example(e520,f6,negative).
example(e520,f7,negative).
example(e520,f8,negative).
example(e521,f1,negative).
example(e521,f2,negative).
example(e521,f3,negative).
example(e521,f4,negative).
example(e521,f5,negative).
example(e521,f6,negative).
example(e521,f7,negative).
example(e521,f8,negative).
example(e522,f1,negative).
example(e522,f2,negative).
example(e522,f3,negative).
example(e522,f4,negative).
example(e522,f5,negative).
example(e522,f6,negative).
example(e522,f7,negative).
example(e522,f8,negative).
example(e523,f1,negative).
example(e523,f2,negative).
example(e523,f3,negative).
example(e523,f4,negative).
example(e523,f5,negative).
example(e523,f6,negative).
example(e523,f7,negative).
example(e523,f8,negative).
example(e524,f1,negative).
example(e524,f2,negative).
example(e524,f3,negative).
example(e524,f4,negative).
example(e524,f5,negative).
example(e524,f6,negative).
example(e524,f7,negative).
example(e524,f8,negative).
example(e525,f1,negative).
example(e525,f2,negative).
example(e525,f3,negative).
example(e525,f4,negative).
example(e525,f5,negative).
example(e525,f6,negative).
example(e525,f7,negative).
example(e525,f8,negative).
example(e526,f1,negative).
example(e526,f2,negative).
example(e526,f3,negative).
example(e526,f4,negative).
example(e526,f5,negative).
example(e526,f6,negative).
example(e526,f7,negative).
example(e526,f8,negative).
example(e527,f1,positive).
example(e527,f2,negative).
example(e527,f3,negative).
example(e527,f4,negative).
example(e527,f5,negative).
example(e527,f6,negative).
example(e527,f7,negative).
example(e527,f8,negative).
example(e528,f1,negative).
example(e528,f2,negative).
example(e528,f3,negative).
example(e528,f4,negative).
example(e528,f5,negative).
example(e528,f6,negative).
example(e528,f7,negative).
example(e528,f8,negative).
example(e529,f1,negative).
example(e529,f2,negative).
example(e529,f3,negative).
example(e529,f4,negative).
example(e529,f5,negative).
example(e529,f6,negative).
example(e529,f7,negative).
example(e529,f8,negative).
example(e530,f1,negative).
example(e530,f2,negative).
example(e530,f3,negative).
example(e530,f4,negative).
example(e530,f5,negative).
example(e530,f6,negative).
example(e530,f7,negative).
example(e530,f8,negative).
example(e531,f1,negative).
example(e531,f2,negative).
example(e531,f3,negative).
example(e531,f4,negative).
example(e531,f5,negative).
example(e531,f6,negative).
example(e531,f7,negative).
example(e531,f8,negative).
example(e532,f1,negative).
example(e532,f2,negative).
example(e532,f3,negative).
example(e532,f4,negative).
example(e532,f5,negative).
example(e532,f6,negative).
example(e532,f7,negative).
example(e532,f8,negative).
example(e533,f1,positive).
example(e533,f2,negative).
example(e533,f3,negative).
example(e533,f4,negative).
example(e533,f5,negative).
example(e533,f6,negative).
example(e533,f7,negative).
example(e533,f8,negative).
example(e534,f1,negative).
example(e534,f2,negative).
example(e534,f3,negative).
example(e534,f4,negative).
example(e534,f5,negative).
example(e534,f6,negative).
example(e534,f7,negative).
example(e534,f8,negative).
example(e535,f1,positive).
example(e535,f2,negative).
example(e535,f3,negative).
example(e535,f4,negative).
example(e535,f5,negative).
example(e535,f6,negative).
example(e535,f7,positive).
example(e535,f8,negative).
example(e536,f1,negative).
example(e536,f2,negative).
example(e536,f3,negative).
example(e536,f4,negative).
example(e536,f5,negative).
example(e536,f6,negative).
example(e536,f7,negative).
example(e536,f8,negative).
example(e537,f1,negative).
example(e537,f2,negative).
example(e537,f3,negative).
example(e537,f4,negative).
example(e537,f5,negative).
example(e537,f6,negative).
example(e537,f7,negative).
example(e537,f8,negative).
example(e538,f1,negative).
example(e538,f2,negative).
example(e538,f3,negative).
example(e538,f4,negative).
example(e538,f5,negative).
example(e538,f6,negative).
example(e538,f7,negative).
example(e538,f8,negative).
example(e539,f1,negative).
example(e539,f2,negative).
example(e539,f3,negative).
example(e539,f4,negative).
example(e539,f5,negative).
example(e539,f6,negative).
example(e539,f7,negative).
example(e539,f8,negative).
example(e540,f1,negative).
example(e540,f2,negative).
example(e540,f3,negative).
example(e540,f4,negative).
example(e540,f5,negative).
example(e540,f6,negative).
example(e540,f7,negative).
example(e540,f8,negative).
example(e541,f1,negative).
example(e541,f2,negative).
example(e541,f3,negative).
example(e541,f4,negative).
example(e541,f5,negative).
example(e541,f6,negative).
example(e541,f7,negative).
example(e541,f8,negative).
example(e542,f1,negative).
example(e542,f2,negative).
example(e542,f3,negative).
example(e542,f4,negative).
example(e542,f5,negative).
example(e542,f6,negative).
example(e542,f7,negative).
example(e542,f8,negative).
example(e543,f1,negative).
example(e543,f2,negative).
example(e543,f3,negative).
example(e543,f4,negative).
example(e543,f5,negative).
example(e543,f6,negative).
example(e543,f7,negative).
example(e543,f8,negative).
example(e544,f1,negative).
example(e544,f2,negative).
example(e544,f3,negative).
example(e544,f4,negative).
example(e544,f5,negative).
example(e544,f6,negative).
example(e544,f7,negative).
example(e544,f8,negative).
example(e545,f1,positive).
example(e545,f2,negative).
example(e545,f3,negative).
example(e545,f4,negative).
example(e545,f5,negative).
example(e545,f6,negative).
example(e545,f7,negative).
example(e545,f8,negative).
example(e546,f1,negative).
example(e546,f2,negative).
example(e546,f3,negative).
example(e546,f4,negative).
example(e546,f5,negative).
example(e546,f6,negative).
example(e546,f7,negative).
example(e546,f8,negative).
example(e547,f1,negative).
example(e547,f2,negative).
example(e547,f3,negative).
example(e547,f4,negative).
example(e547,f5,negative).
example(e547,f6,negative).
example(e547,f7,positive).
example(e547,f8,negative).
example(e548,f1,negative).
example(e548,f2,negative).
example(e548,f3,negative).
example(e548,f4,negative).
example(e548,f5,negative).
example(e548,f6,negative).
example(e548,f7,negative).
example(e548,f8,negative).
example(e549,f1,positive).
example(e549,f2,negative).
example(e549,f3,negative).
example(e549,f4,negative).
example(e549,f5,negative).
example(e549,f6,negative).
example(e549,f7,negative).
example(e549,f8,negative).
example(e550,f1,negative).
example(e550,f2,negative).
example(e550,f3,negative).
example(e550,f4,negative).
example(e550,f5,negative).
example(e550,f6,negative).
example(e550,f7,negative).
example(e550,f8,negative).
example(e551,f1,positive).
example(e551,f2,negative).
example(e551,f3,negative).
example(e551,f4,negative).
example(e551,f5,negative).
example(e551,f6,negative).
example(e551,f7,negative).
example(e551,f8,negative).
example(e552,f1,negative).
example(e552,f2,negative).
example(e552,f3,negative).
example(e552,f4,negative).
example(e552,f5,negative).
example(e552,f6,negative).
example(e552,f7,negative).
example(e552,f8,negative).
example(e553,f1,negative).
example(e553,f2,negative).
example(e553,f3,negative).
example(e553,f4,negative).
example(e553,f5,negative).
example(e553,f6,negative).
example(e553,f7,negative).
example(e553,f8,negative).
example(e554,f1,positive).
example(e554,f2,negative).
example(e554,f3,negative).
example(e554,f4,negative).
example(e554,f5,negative).
example(e554,f6,negative).
example(e554,f7,negative).
example(e554,f8,negative).
example(e555,f1,positive).
example(e555,f2,negative).
example(e555,f3,negative).
example(e555,f4,negative).
example(e555,f5,negative).
example(e555,f6,negative).
example(e555,f7,negative).
example(e555,f8,negative).
example(e556,f1,negative).
example(e556,f2,negative).
example(e556,f3,negative).
example(e556,f4,negative).
example(e556,f5,negative).
example(e556,f6,negative).
example(e556,f7,negative).
example(e556,f8,negative).
example(e557,f1,positive).
example(e557,f2,negative).
example(e557,f3,negative).
example(e557,f4,negative).
example(e557,f5,negative).
example(e557,f6,negative).
example(e557,f7,negative).
example(e557,f8,negative).
example(e558,f1,negative).
example(e558,f2,negative).
example(e558,f3,negative).
example(e558,f4,negative).
example(e558,f5,negative).
example(e558,f6,negative).
example(e558,f7,negative).
example(e558,f8,negative).
example(e559,f1,negative).
example(e559,f2,negative).
example(e559,f3,negative).
example(e559,f4,negative).
example(e559,f5,negative).
example(e559,f6,negative).
example(e559,f7,negative).
example(e559,f8,negative).
example(e560,f1,negative).
example(e560,f2,negative).
example(e560,f3,negative).
example(e560,f4,negative).
example(e560,f5,negative).
example(e560,f6,negative).
example(e560,f7,negative).
example(e560,f8,negative).
example(e561,f1,negative).
example(e561,f2,negative).
example(e561,f3,negative).
example(e561,f4,negative).
example(e561,f5,negative).
example(e561,f6,negative).
example(e561,f7,negative).
example(e561,f8,negative).
example(e562,f1,negative).
example(e562,f2,negative).
example(e562,f3,negative).
example(e562,f4,negative).
example(e562,f5,negative).
example(e562,f6,negative).
example(e562,f7,negative).
example(e562,f8,negative).
example(e563,f1,positive).
example(e563,f2,negative).
example(e563,f3,negative).
example(e563,f4,negative).
example(e563,f5,negative).
example(e563,f6,negative).
example(e563,f7,negative).
example(e563,f8,negative).
example(e564,f1,negative).
example(e564,f2,negative).
example(e564,f3,negative).
example(e564,f4,negative).
example(e564,f5,negative).
example(e564,f6,negative).
example(e564,f7,negative).
example(e564,f8,negative).
example(e565,f1,negative).
example(e565,f2,negative).
example(e565,f3,negative).
example(e565,f4,negative).
example(e565,f5,negative).
example(e565,f6,negative).
example(e565,f7,negative).
example(e565,f8,negative).
example(e566,f1,negative).
example(e566,f2,negative).
example(e566,f3,negative).
example(e566,f4,negative).
example(e566,f5,negative).
example(e566,f6,negative).
example(e566,f7,negative).
example(e566,f8,negative).
example(e567,f1,positive).
example(e567,f2,negative).
example(e567,f3,negative).
example(e567,f4,negative).
example(e567,f5,negative).
example(e567,f6,negative).
example(e567,f7,negative).
example(e567,f8,negative).
example(e568,f1,negative).
example(e568,f2,negative).
example(e568,f3,negative).
example(e568,f4,negative).
example(e568,f5,negative).
example(e568,f6,negative).
example(e568,f7,negative).
example(e568,f8,negative).
example(e569,f1,negative).
example(e569,f2,negative).
example(e569,f3,negative).
example(e569,f4,negative).
example(e569,f5,negative).
example(e569,f6,negative).
example(e569,f7,negative).
example(e569,f8,negative).
example(e570,f1,negative).
example(e570,f2,negative).
example(e570,f3,negative).
example(e570,f4,negative).
example(e570,f5,negative).
example(e570,f6,negative).
example(e570,f7,negative).
example(e570,f8,negative).
example(e571,f1,negative).
example(e571,f2,negative).
example(e571,f3,negative).
example(e571,f4,negative).
example(e571,f5,negative).
example(e571,f6,negative).
example(e571,f7,negative).
example(e571,f8,negative).
example(e572,f1,negative).
example(e572,f2,negative).
example(e572,f3,negative).
example(e572,f4,negative).
example(e572,f5,negative).
example(e572,f6,negative).
example(e572,f7,negative).
example(e572,f8,negative).
example(e573,f1,negative).
example(e573,f2,negative).
example(e573,f3,negative).
example(e573,f4,negative).
example(e573,f5,negative).
example(e573,f6,negative).
example(e573,f7,negative).
example(e573,f8,negative).
example(e574,f1,negative).
example(e574,f2,negative).
example(e574,f3,negative).
example(e574,f4,negative).
example(e574,f5,negative).
example(e574,f6,negative).
example(e574,f7,negative).
example(e574,f8,negative).
example(e575,f1,positive).
example(e575,f2,negative).
example(e575,f3,negative).
example(e575,f4,negative).
example(e575,f5,negative).
example(e575,f6,negative).
example(e575,f7,negative).
example(e575,f8,negative).
example(e576,f1,positive).
example(e576,f2,negative).
example(e576,f3,negative).
example(e576,f4,negative).
example(e576,f5,negative).
example(e576,f6,negative).
example(e576,f7,negative).
example(e576,f8,negative).
example(e577,f1,negative).
example(e577,f2,negative).
example(e577,f3,negative).
example(e577,f4,negative).
example(e577,f5,negative).
example(e577,f6,negative).
example(e577,f7,negative).
example(e577,f8,negative).
example(e578,f1,negative).
example(e578,f2,negative).
example(e578,f3,negative).
example(e578,f4,negative).
example(e578,f5,negative).
example(e578,f6,negative).
example(e578,f7,negative).
example(e578,f8,negative).
example(e579,f1,negative).
example(e579,f2,negative).
example(e579,f3,negative).
example(e579,f4,negative).
example(e579,f5,negative).
example(e579,f6,negative).
example(e579,f7,negative).
example(e579,f8,negative).
example(e580,f1,negative).
example(e580,f2,negative).
example(e580,f3,negative).
example(e580,f4,negative).
example(e580,f5,negative).
example(e580,f6,negative).
example(e580,f7,negative).
example(e580,f8,negative).
example(e581,f1,negative).
example(e581,f2,negative).
example(e581,f3,negative).
example(e581,f4,negative).
example(e581,f5,negative).
example(e581,f6,negative).
example(e581,f7,negative).
example(e581,f8,negative).
example(e582,f1,negative).
example(e582,f2,negative).
example(e582,f3,negative).
example(e582,f4,negative).
example(e582,f5,negative).
example(e582,f6,negative).
example(e582,f7,negative).
example(e582,f8,negative).
example(e583,f1,negative).
example(e583,f2,negative).
example(e583,f3,negative).
example(e583,f4,negative).
example(e583,f5,negative).
example(e583,f6,negative).
example(e583,f7,negative).
example(e583,f8,negative).
example(e584,f1,negative).
example(e584,f2,negative).
example(e584,f3,negative).
example(e584,f4,negative).
example(e584,f5,negative).
example(e584,f6,negative).
example(e584,f7,negative).
example(e584,f8,negative).
example(e585,f1,negative).
example(e585,f2,negative).
example(e585,f3,negative).
example(e585,f4,negative).
example(e585,f5,negative).
example(e585,f6,negative).
example(e585,f7,negative).
example(e585,f8,negative).
example(e586,f1,positive).
example(e586,f2,negative).
example(e586,f3,negative).
example(e586,f4,negative).
example(e586,f5,negative).
example(e586,f6,negative).
example(e586,f7,negative).
example(e586,f8,negative).
example(e587,f1,negative).
example(e587,f2,negative).
example(e587,f3,negative).
example(e587,f4,negative).
example(e587,f5,negative).
example(e587,f6,negative).
example(e587,f7,negative).
example(e587,f8,negative).
example(e588,f1,negative).
example(e588,f2,negative).
example(e588,f3,negative).
example(e588,f4,negative).
example(e588,f5,negative).
example(e588,f6,negative).
example(e588,f7,negative).
example(e588,f8,negative).
example(e589,f1,negative).
example(e589,f2,negative).
example(e589,f3,negative).
example(e589,f4,negative).
example(e589,f5,negative).
example(e589,f6,negative).
example(e589,f7,positive).
example(e589,f8,negative).
example(e590,f1,negative).
example(e590,f2,negative).
example(e590,f3,negative).
example(e590,f4,negative).
example(e590,f5,negative).
example(e590,f6,negative).
example(e590,f7,negative).
example(e590,f8,negative).
example(e591,f1,negative).
example(e591,f2,negative).
example(e591,f3,negative).
example(e591,f4,negative).
example(e591,f5,negative).
example(e591,f6,negative).
example(e591,f7,negative).
example(e591,f8,negative).
example(e592,f1,negative).
example(e592,f2,negative).
example(e592,f3,negative).
example(e592,f4,negative).
example(e592,f5,negative).
example(e592,f6,negative).
example(e592,f7,negative).
example(e592,f8,negative).
example(e593,f1,negative).
example(e593,f2,negative).
example(e593,f3,negative).
example(e593,f4,negative).
example(e593,f5,negative).
example(e593,f6,negative).
example(e593,f7,negative).
example(e593,f8,negative).
example(e594,f1,negative).
example(e594,f2,negative).
example(e594,f3,negative).
example(e594,f4,negative).
example(e594,f5,negative).
example(e594,f6,negative).
example(e594,f7,positive).
example(e594,f8,negative).
example(e595,f1,negative).
example(e595,f2,negative).
example(e595,f3,negative).
example(e595,f4,negative).
example(e595,f5,negative).
example(e595,f6,negative).
example(e595,f7,negative).
example(e595,f8,negative).
example(e596,f1,negative).
example(e596,f2,negative).
example(e596,f3,negative).
example(e596,f4,negative).
example(e596,f5,negative).
example(e596,f6,negative).
example(e596,f7,negative).
example(e596,f8,negative).
example(e597,f1,negative).
example(e597,f2,negative).
example(e597,f3,negative).
example(e597,f4,negative).
example(e597,f5,negative).
example(e597,f6,negative).
example(e597,f7,negative).
example(e597,f8,negative).
example(e598,f1,positive).
example(e598,f2,negative).
example(e598,f3,negative).
example(e598,f4,negative).
example(e598,f5,negative).
example(e598,f6,negative).
example(e598,f7,negative).
example(e598,f8,negative).
example(e599,f1,positive).
example(e599,f2,negative).
example(e599,f3,negative).
example(e599,f4,negative).
example(e599,f5,negative).
example(e599,f6,negative).
example(e599,f7,negative).
example(e599,f8,negative).
example(e600,f1,positive).
example(e600,f2,negative).
example(e600,f3,negative).
example(e600,f4,negative).
example(e600,f5,negative).
example(e600,f6,negative).
example(e600,f7,negative).
example(e600,f8,negative).
example(e601,f1,positive).
example(e601,f2,negative).
example(e601,f3,negative).
example(e601,f4,negative).
example(e601,f5,negative).
example(e601,f6,negative).
example(e601,f7,negative).
example(e601,f8,negative).
example(e602,f1,negative).
example(e602,f2,negative).
example(e602,f3,negative).
example(e602,f4,negative).
example(e602,f5,negative).
example(e602,f6,negative).
example(e602,f7,negative).
example(e602,f8,negative).
example(e603,f1,positive).
example(e603,f2,negative).
example(e603,f3,negative).
example(e603,f4,negative).
example(e603,f5,negative).
example(e603,f6,negative).
example(e603,f7,negative).
example(e603,f8,negative).
example(e604,f1,negative).
example(e604,f2,negative).
example(e604,f3,negative).
example(e604,f4,negative).
example(e604,f5,negative).
example(e604,f6,negative).
example(e604,f7,negative).
example(e604,f8,negative).
example(e605,f1,negative).
example(e605,f2,negative).
example(e605,f3,negative).
example(e605,f4,negative).
example(e605,f5,negative).
example(e605,f6,negative).
example(e605,f7,negative).
example(e605,f8,negative).
example(e606,f1,positive).
example(e606,f2,negative).
example(e606,f3,negative).
example(e606,f4,negative).
example(e606,f5,negative).
example(e606,f6,negative).
example(e606,f7,negative).
example(e606,f8,negative).
example(e607,f1,positive).
example(e607,f2,negative).
example(e607,f3,negative).
example(e607,f4,negative).
example(e607,f5,negative).
example(e607,f6,negative).
example(e607,f7,positive).
example(e607,f8,negative).
example(e608,f1,positive).
example(e608,f2,negative).
example(e608,f3,negative).
example(e608,f4,negative).
example(e608,f5,negative).
example(e608,f6,negative).
example(e608,f7,negative).
example(e608,f8,negative).
example(e609,f1,negative).
example(e609,f2,negative).
example(e609,f3,negative).
example(e609,f4,negative).
example(e609,f5,negative).
example(e609,f6,negative).
example(e609,f7,negative).
example(e609,f8,negative).
example(e610,f1,positive).
example(e610,f2,negative).
example(e610,f3,negative).
example(e610,f4,negative).
example(e610,f5,negative).
example(e610,f6,negative).
example(e610,f7,negative).
example(e610,f8,negative).
example(e611,f1,negative).
example(e611,f2,negative).
example(e611,f3,negative).
example(e611,f4,negative).
example(e611,f5,negative).
example(e611,f6,negative).
example(e611,f7,negative).
example(e611,f8,negative).
example(e612,f1,negative).
example(e612,f2,negative).
example(e612,f3,negative).
example(e612,f4,negative).
example(e612,f5,negative).
example(e612,f6,negative).
example(e612,f7,negative).
example(e612,f8,negative).
example(e613,f1,negative).
example(e613,f2,negative).
example(e613,f3,negative).
example(e613,f4,negative).
example(e613,f5,negative).
example(e613,f6,negative).
example(e613,f7,negative).
example(e613,f8,negative).
example(e614,f1,negative).
example(e614,f2,negative).
example(e614,f3,negative).
example(e614,f4,negative).
example(e614,f5,negative).
example(e614,f6,negative).
example(e614,f7,negative).
example(e614,f8,negative).
example(e615,f1,negative).
example(e615,f2,negative).
example(e615,f3,negative).
example(e615,f4,negative).
example(e615,f5,negative).
example(e615,f6,negative).
example(e615,f7,negative).
example(e615,f8,negative).
example(e616,f1,negative).
example(e616,f2,negative).
example(e616,f3,negative).
example(e616,f4,negative).
example(e616,f5,negative).
example(e616,f6,negative).
example(e616,f7,negative).
example(e616,f8,negative).
example(e617,f1,negative).
example(e617,f2,negative).
example(e617,f3,negative).
example(e617,f4,negative).
example(e617,f5,negative).
example(e617,f6,negative).
example(e617,f7,negative).
example(e617,f8,negative).
example(e618,f1,negative).
example(e618,f2,negative).
example(e618,f3,negative).
example(e618,f4,negative).
example(e618,f5,negative).
example(e618,f6,negative).
example(e618,f7,negative).
example(e618,f8,negative).
example(e619,f1,negative).
example(e619,f2,negative).
example(e619,f3,negative).
example(e619,f4,negative).
example(e619,f5,negative).
example(e619,f6,negative).
example(e619,f7,positive).
example(e619,f8,negative).
example(e620,f1,negative).
example(e620,f2,negative).
example(e620,f3,negative).
example(e620,f4,negative).
example(e620,f5,negative).
example(e620,f6,negative).
example(e620,f7,negative).
example(e620,f8,negative).
example(e621,f1,negative).
example(e621,f2,negative).
example(e621,f3,negative).
example(e621,f4,negative).
example(e621,f5,negative).
example(e621,f6,negative).
example(e621,f7,negative).
example(e621,f8,negative).
example(e622,f1,negative).
example(e622,f2,negative).
example(e622,f3,negative).
example(e622,f4,negative).
example(e622,f5,negative).
example(e622,f6,negative).
example(e622,f7,positive).
example(e622,f8,negative).
example(e623,f1,negative).
example(e623,f2,negative).
example(e623,f3,negative).
example(e623,f4,negative).
example(e623,f5,negative).
example(e623,f6,negative).
example(e623,f7,positive).
example(e623,f8,negative).
example(e624,f1,negative).
example(e624,f2,negative).
example(e624,f3,negative).
example(e624,f4,negative).
example(e624,f5,negative).
example(e624,f6,negative).
example(e624,f7,negative).
example(e624,f8,negative).
example(e625,f1,negative).
example(e625,f2,negative).
example(e625,f3,negative).
example(e625,f4,negative).
example(e625,f5,negative).
example(e625,f6,negative).
example(e625,f7,negative).
example(e625,f8,negative).
example(e626,f1,negative).
example(e626,f2,negative).
example(e626,f3,negative).
example(e626,f4,negative).
example(e626,f5,negative).
example(e626,f6,negative).
example(e626,f7,negative).
example(e626,f8,negative).
example(e627,f1,negative).
example(e627,f2,negative).
example(e627,f3,negative).
example(e627,f4,negative).
example(e627,f5,negative).
example(e627,f6,negative).
example(e627,f7,negative).
example(e627,f8,negative).
example(e628,f1,negative).
example(e628,f2,negative).
example(e628,f3,negative).
example(e628,f4,negative).
example(e628,f5,negative).
example(e628,f6,negative).
example(e628,f7,negative).
example(e628,f8,negative).
example(e629,f1,negative).
example(e629,f2,negative).
example(e629,f3,negative).
example(e629,f4,negative).
example(e629,f5,negative).
example(e629,f6,negative).
example(e629,f7,negative).
example(e629,f8,negative).
example(e630,f1,negative).
example(e630,f2,negative).
example(e630,f3,negative).
example(e630,f4,negative).
example(e630,f5,negative).
example(e630,f6,negative).
example(e630,f7,negative).
example(e630,f8,negative).
example(e631,f1,negative).
example(e631,f2,negative).
example(e631,f3,negative).
example(e631,f4,negative).
example(e631,f5,negative).
example(e631,f6,negative).
example(e631,f7,negative).
example(e631,f8,negative).
example(e632,f1,negative).
example(e632,f2,negative).
example(e632,f3,negative).
example(e632,f4,negative).
example(e632,f5,negative).
example(e632,f6,negative).
example(e632,f7,negative).
example(e632,f8,negative).
example(e633,f1,negative).
example(e633,f2,negative).
example(e633,f3,negative).
example(e633,f4,negative).
example(e633,f5,negative).
example(e633,f6,negative).
example(e633,f7,negative).
example(e633,f8,negative).
example(e634,f1,positive).
example(e634,f2,negative).
example(e634,f3,negative).
example(e634,f4,negative).
example(e634,f5,negative).
example(e634,f6,negative).
example(e634,f7,negative).
example(e634,f8,negative).
example(e635,f1,negative).
example(e635,f2,negative).
example(e635,f3,negative).
example(e635,f4,negative).
example(e635,f5,negative).
example(e635,f6,negative).
example(e635,f7,negative).
example(e635,f8,negative).
example(e636,f1,negative).
example(e636,f2,negative).
example(e636,f3,negative).
example(e636,f4,negative).
example(e636,f5,negative).
example(e636,f6,negative).
example(e636,f7,negative).
example(e636,f8,negative).
example(e637,f1,negative).
example(e637,f2,negative).
example(e637,f3,negative).
example(e637,f4,negative).
example(e637,f5,negative).
example(e637,f6,negative).
example(e637,f7,negative).
example(e637,f8,negative).
example(e638,f1,negative).
example(e638,f2,negative).
example(e638,f3,negative).
example(e638,f4,negative).
example(e638,f5,negative).
example(e638,f6,negative).
example(e638,f7,negative).
example(e638,f8,negative).
example(e639,f1,negative).
example(e639,f2,negative).
example(e639,f3,negative).
example(e639,f4,negative).
example(e639,f5,negative).
example(e639,f6,negative).
example(e639,f7,negative).
example(e639,f8,negative).
example(e640,f1,positive).
example(e640,f2,negative).
example(e640,f3,negative).
example(e640,f4,negative).
example(e640,f5,negative).
example(e640,f6,negative).
example(e640,f7,negative).
example(e640,f8,negative).
example(e641,f1,negative).
example(e641,f2,negative).
example(e641,f3,negative).
example(e641,f4,negative).
example(e641,f5,negative).
example(e641,f6,negative).
example(e641,f7,negative).
example(e641,f8,negative).
example(e642,f1,negative).
example(e642,f2,negative).
example(e642,f3,negative).
example(e642,f4,negative).
example(e642,f5,negative).
example(e642,f6,negative).
example(e642,f7,negative).
example(e642,f8,negative).
example(e643,f1,negative).
example(e643,f2,negative).
example(e643,f3,negative).
example(e643,f4,negative).
example(e643,f5,negative).
example(e643,f6,negative).
example(e643,f7,negative).
example(e643,f8,negative).
example(e644,f1,negative).
example(e644,f2,negative).
example(e644,f3,negative).
example(e644,f4,negative).
example(e644,f5,negative).
example(e644,f6,negative).
example(e644,f7,negative).
example(e644,f8,negative).
example(e645,f1,negative).
example(e645,f2,negative).
example(e645,f3,negative).
example(e645,f4,negative).
example(e645,f5,negative).
example(e645,f6,negative).
example(e645,f7,negative).
example(e645,f8,negative).
example(e646,f1,negative).
example(e646,f2,negative).
example(e646,f3,negative).
example(e646,f4,negative).
example(e646,f5,negative).
example(e646,f6,negative).
example(e646,f7,negative).
example(e646,f8,negative).
example(e647,f1,positive).
example(e647,f2,negative).
example(e647,f3,negative).
example(e647,f4,negative).
example(e647,f5,negative).
example(e647,f6,negative).
example(e647,f7,negative).
example(e647,f8,negative).
example(e648,f1,negative).
example(e648,f2,negative).
example(e648,f3,negative).
example(e648,f4,negative).
example(e648,f5,negative).
example(e648,f6,negative).
example(e648,f7,negative).
example(e648,f8,negative).
example(e649,f1,negative).
example(e649,f2,negative).
example(e649,f3,negative).
example(e649,f4,negative).
example(e649,f5,negative).
example(e649,f6,negative).
example(e649,f7,negative).
example(e649,f8,negative).
example(e650,f1,negative).
example(e650,f2,negative).
example(e650,f3,negative).
example(e650,f4,negative).
example(e650,f5,negative).
example(e650,f6,negative).
example(e650,f7,negative).
example(e650,f8,negative).
example(e651,f1,positive).
example(e651,f2,negative).
example(e651,f3,negative).
example(e651,f4,negative).
example(e651,f5,negative).
example(e651,f6,negative).
example(e651,f7,negative).
example(e651,f8,negative).
example(e652,f1,positive).
example(e652,f2,negative).
example(e652,f3,negative).
example(e652,f4,negative).
example(e652,f5,negative).
example(e652,f6,negative).
example(e652,f7,negative).
example(e652,f8,negative).
example(e653,f1,negative).
example(e653,f2,negative).
example(e653,f3,negative).
example(e653,f4,negative).
example(e653,f5,negative).
example(e653,f6,negative).
example(e653,f7,negative).
example(e653,f8,negative).
example(e654,f1,negative).
example(e654,f2,negative).
example(e654,f3,negative).
example(e654,f4,negative).
example(e654,f5,negative).
example(e654,f6,negative).
example(e654,f7,negative).
example(e654,f8,negative).
example(e655,f1,positive).
example(e655,f2,negative).
example(e655,f3,negative).
example(e655,f4,negative).
example(e655,f5,negative).
example(e655,f6,negative).
example(e655,f7,negative).
example(e655,f8,negative).
example(e656,f1,negative).
example(e656,f2,negative).
example(e656,f3,negative).
example(e656,f4,negative).
example(e656,f5,negative).
example(e656,f6,negative).
example(e656,f7,negative).
example(e656,f8,negative).
example(e657,f1,negative).
example(e657,f2,negative).
example(e657,f3,negative).
example(e657,f4,negative).
example(e657,f5,negative).
example(e657,f6,negative).
example(e657,f7,negative).
example(e657,f8,negative).
example(e658,f1,positive).
example(e658,f2,negative).
example(e658,f3,negative).
example(e658,f4,negative).
example(e658,f5,negative).
example(e658,f6,negative).
example(e658,f7,positive).
example(e658,f8,negative).
example(e659,f1,negative).
example(e659,f2,negative).
example(e659,f3,negative).
example(e659,f4,negative).
example(e659,f5,negative).
example(e659,f6,negative).
example(e659,f7,negative).
example(e659,f8,negative).
example(e660,f1,negative).
example(e660,f2,negative).
example(e660,f3,negative).
example(e660,f4,negative).
example(e660,f5,negative).
example(e660,f6,negative).
example(e660,f7,positive).
example(e660,f8,negative).
example(e661,f1,negative).
example(e661,f2,negative).
example(e661,f3,negative).
example(e661,f4,negative).
example(e661,f5,negative).
example(e661,f6,negative).
example(e661,f7,negative).
example(e661,f8,negative).
example(e662,f1,positive).
example(e662,f2,negative).
example(e662,f3,negative).
example(e662,f4,negative).
example(e662,f5,negative).
example(e662,f6,negative).
example(e662,f7,positive).
example(e662,f8,negative).
example(e663,f1,negative).
example(e663,f2,negative).
example(e663,f3,negative).
example(e663,f4,negative).
example(e663,f5,negative).
example(e663,f6,negative).
example(e663,f7,negative).
example(e663,f8,negative).
example(e664,f1,negative).
example(e664,f2,negative).
example(e664,f3,negative).
example(e664,f4,negative).
example(e664,f5,negative).
example(e664,f6,negative).
example(e664,f7,negative).
example(e664,f8,negative).
example(e665,f1,negative).
example(e665,f2,negative).
example(e665,f3,negative).
example(e665,f4,negative).
example(e665,f5,negative).
example(e665,f6,negative).
example(e665,f7,negative).
example(e665,f8,negative).
example(e666,f1,positive).
example(e666,f2,negative).
example(e666,f3,negative).
example(e666,f4,negative).
example(e666,f5,negative).
example(e666,f6,negative).
example(e666,f7,negative).
example(e666,f8,negative).
example(e667,f1,negative).
example(e667,f2,negative).
example(e667,f3,negative).
example(e667,f4,negative).
example(e667,f5,negative).
example(e667,f6,negative).
example(e667,f7,negative).
example(e667,f8,negative).
example(e668,f1,negative).
example(e668,f2,negative).
example(e668,f3,negative).
example(e668,f4,negative).
example(e668,f5,negative).
example(e668,f6,negative).
example(e668,f7,negative).
example(e668,f8,negative).
example(e669,f1,negative).
example(e669,f2,negative).
example(e669,f3,negative).
example(e669,f4,negative).
example(e669,f5,negative).
example(e669,f6,negative).
example(e669,f7,negative).
example(e669,f8,negative).
example(e670,f1,negative).
example(e670,f2,negative).
example(e670,f3,negative).
example(e670,f4,negative).
example(e670,f5,negative).
example(e670,f6,negative).
example(e670,f7,negative).
example(e670,f8,negative).
example(e671,f1,negative).
example(e671,f2,negative).
example(e671,f3,negative).
example(e671,f4,negative).
example(e671,f5,negative).
example(e671,f6,negative).
example(e671,f7,negative).
example(e671,f8,negative).
example(e672,f1,positive).
example(e672,f2,negative).
example(e672,f3,negative).
example(e672,f4,negative).
example(e672,f5,negative).
example(e672,f6,negative).
example(e672,f7,negative).
example(e672,f8,negative).
example(e673,f1,negative).
example(e673,f2,negative).
example(e673,f3,negative).
example(e673,f4,negative).
example(e673,f5,negative).
example(e673,f6,negative).
example(e673,f7,negative).
example(e673,f8,negative).
example(e674,f1,negative).
example(e674,f2,negative).
example(e674,f3,negative).
example(e674,f4,negative).
example(e674,f5,negative).
example(e674,f6,negative).
example(e674,f7,negative).
example(e674,f8,negative).
example(e675,f1,negative).
example(e675,f2,negative).
example(e675,f3,negative).
example(e675,f4,negative).
example(e675,f5,negative).
example(e675,f6,negative).
example(e675,f7,negative).
example(e675,f8,negative).
example(e676,f1,negative).
example(e676,f2,negative).
example(e676,f3,negative).
example(e676,f4,negative).
example(e676,f5,negative).
example(e676,f6,negative).
example(e676,f7,negative).
example(e676,f8,negative).
example(e677,f1,negative).
example(e677,f2,negative).
example(e677,f3,negative).
example(e677,f4,negative).
example(e677,f5,negative).
example(e677,f6,negative).
example(e677,f7,negative).
example(e677,f8,negative).
example(e678,f1,negative).
example(e678,f2,negative).
example(e678,f3,negative).
example(e678,f4,negative).
example(e678,f5,negative).
example(e678,f6,negative).
example(e678,f7,negative).
example(e678,f8,negative).
example(e679,f1,negative).
example(e679,f2,negative).
example(e679,f3,negative).
example(e679,f4,negative).
example(e679,f5,negative).
example(e679,f6,negative).
example(e679,f7,negative).
example(e679,f8,negative).
example(e680,f1,negative).
example(e680,f2,negative).
example(e680,f3,negative).
example(e680,f4,negative).
example(e680,f5,negative).
example(e680,f6,negative).
example(e680,f7,negative).
example(e680,f8,negative).
example(e681,f1,negative).
example(e681,f2,negative).
example(e681,f3,negative).
example(e681,f4,negative).
example(e681,f5,negative).
example(e681,f6,negative).
example(e681,f7,negative).
example(e681,f8,negative).
example(e682,f1,negative).
example(e682,f2,negative).
example(e682,f3,negative).
example(e682,f4,negative).
example(e682,f5,negative).
example(e682,f6,negative).
example(e682,f7,negative).
example(e682,f8,negative).
example(e683,f1,negative).
example(e683,f2,negative).
example(e683,f3,negative).
example(e683,f4,negative).
example(e683,f5,negative).
example(e683,f6,negative).
example(e683,f7,negative).
example(e683,f8,negative).
example(e684,f1,negative).
example(e684,f2,negative).
example(e684,f3,negative).
example(e684,f4,negative).
example(e684,f5,negative).
example(e684,f6,negative).
example(e684,f7,negative).
example(e684,f8,negative).
example(e685,f1,negative).
example(e685,f2,negative).
example(e685,f3,negative).
example(e685,f4,negative).
example(e685,f5,negative).
example(e685,f6,negative).
example(e685,f7,negative).
example(e685,f8,negative).
example(e686,f1,negative).
example(e686,f2,negative).
example(e686,f3,negative).
example(e686,f4,negative).
example(e686,f5,negative).
example(e686,f6,negative).
example(e686,f7,negative).
example(e686,f8,negative).
example(e687,f1,negative).
example(e687,f2,negative).
example(e687,f3,negative).
example(e687,f4,negative).
example(e687,f5,negative).
example(e687,f6,negative).
example(e687,f7,negative).
example(e687,f8,negative).
example(e688,f1,positive).
example(e688,f2,negative).
example(e688,f3,negative).
example(e688,f4,negative).
example(e688,f5,negative).
example(e688,f6,negative).
example(e688,f7,negative).
example(e688,f8,negative).
example(e689,f1,positive).
example(e689,f2,negative).
example(e689,f3,negative).
example(e689,f4,negative).
example(e689,f5,negative).
example(e689,f6,negative).
example(e689,f7,negative).
example(e689,f8,negative).
example(e690,f1,positive).
example(e690,f2,negative).
example(e690,f3,negative).
example(e690,f4,negative).
example(e690,f5,negative).
example(e690,f6,negative).
example(e690,f7,negative).
example(e690,f8,negative).
example(e691,f1,negative).
example(e691,f2,negative).
example(e691,f3,negative).
example(e691,f4,negative).
example(e691,f5,negative).
example(e691,f6,negative).
example(e691,f7,negative).
example(e691,f8,negative).
example(e692,f1,negative).
example(e692,f2,negative).
example(e692,f3,negative).
example(e692,f4,negative).
example(e692,f5,negative).
example(e692,f6,negative).
example(e692,f7,negative).
example(e692,f8,negative).
example(e693,f1,negative).
example(e693,f2,negative).
example(e693,f3,negative).
example(e693,f4,negative).
example(e693,f5,negative).
example(e693,f6,negative).
example(e693,f7,negative).
example(e693,f8,negative).
example(e694,f1,negative).
example(e694,f2,negative).
example(e694,f3,negative).
example(e694,f4,negative).
example(e694,f5,negative).
example(e694,f6,negative).
example(e694,f7,negative).
example(e694,f8,negative).
example(e695,f1,negative).
example(e695,f2,negative).
example(e695,f3,negative).
example(e695,f4,negative).
example(e695,f5,negative).
example(e695,f6,negative).
example(e695,f7,negative).
example(e695,f8,negative).
example(e696,f1,negative).
example(e696,f2,negative).
example(e696,f3,negative).
example(e696,f4,negative).
example(e696,f5,negative).
example(e696,f6,negative).
example(e696,f7,negative).
example(e696,f8,negative).
example(e697,f1,negative).
example(e697,f2,negative).
example(e697,f3,negative).
example(e697,f4,negative).
example(e697,f5,negative).
example(e697,f6,negative).
example(e697,f7,negative).
example(e697,f8,negative).
example(e698,f1,negative).
example(e698,f2,negative).
example(e698,f3,negative).
example(e698,f4,negative).
example(e698,f5,negative).
example(e698,f6,negative).
example(e698,f7,negative).
example(e698,f8,negative).
example(e699,f1,negative).
example(e699,f2,negative).
example(e699,f3,negative).
example(e699,f4,negative).
example(e699,f5,negative).
example(e699,f6,negative).
example(e699,f7,negative).
example(e699,f8,negative).
example(e700,f1,negative).
example(e700,f2,negative).
example(e700,f3,negative).
example(e700,f4,negative).
example(e700,f5,negative).
example(e700,f6,negative).
example(e700,f7,negative).
example(e700,f8,negative).
example(e701,f1,negative).
example(e701,f2,negative).
example(e701,f3,negative).
example(e701,f4,negative).
example(e701,f5,negative).
example(e701,f6,negative).
example(e701,f7,negative).
example(e701,f8,negative).
example(e702,f1,negative).
example(e702,f2,negative).
example(e702,f3,negative).
example(e702,f4,negative).
example(e702,f5,negative).
example(e702,f6,negative).
example(e702,f7,negative).
example(e702,f8,negative).
example(e703,f1,positive).
example(e703,f2,negative).
example(e703,f3,negative).
example(e703,f4,negative).
example(e703,f5,negative).
example(e703,f6,negative).
example(e703,f7,negative).
example(e703,f8,negative).
example(e704,f1,negative).
example(e704,f2,negative).
example(e704,f3,negative).
example(e704,f4,negative).
example(e704,f5,negative).
example(e704,f6,negative).
example(e704,f7,negative).
example(e704,f8,negative).
example(e705,f1,negative).
example(e705,f2,negative).
example(e705,f3,negative).
example(e705,f4,negative).
example(e705,f5,negative).
example(e705,f6,negative).
example(e705,f7,negative).
example(e705,f8,negative).
example(e706,f1,negative).
example(e706,f2,negative).
example(e706,f3,negative).
example(e706,f4,negative).
example(e706,f5,negative).
example(e706,f6,negative).
example(e706,f7,negative).
example(e706,f8,negative).
example(e707,f1,negative).
example(e707,f2,negative).
example(e707,f3,negative).
example(e707,f4,negative).
example(e707,f5,negative).
example(e707,f6,negative).
example(e707,f7,negative).
example(e707,f8,negative).
example(e708,f1,negative).
example(e708,f2,negative).
example(e708,f3,negative).
example(e708,f4,negative).
example(e708,f5,negative).
example(e708,f6,negative).
example(e708,f7,negative).
example(e708,f8,negative).
example(e709,f1,negative).
example(e709,f2,negative).
example(e709,f3,negative).
example(e709,f4,negative).
example(e709,f5,negative).
example(e709,f6,negative).
example(e709,f7,negative).
example(e709,f8,negative).
example(e710,f1,negative).
example(e710,f2,negative).
example(e710,f3,negative).
example(e710,f4,negative).
example(e710,f5,negative).
example(e710,f6,negative).
example(e710,f7,negative).
example(e710,f8,negative).
example(e711,f1,negative).
example(e711,f2,negative).
example(e711,f3,negative).
example(e711,f4,negative).
example(e711,f5,negative).
example(e711,f6,negative).
example(e711,f7,negative).
example(e711,f8,negative).
example(e712,f1,negative).
example(e712,f2,negative).
example(e712,f3,negative).
example(e712,f4,negative).
example(e712,f5,negative).
example(e712,f6,negative).
example(e712,f7,negative).
example(e712,f8,negative).
example(e713,f1,negative).
example(e713,f2,negative).
example(e713,f3,negative).
example(e713,f4,negative).
example(e713,f5,negative).
example(e713,f6,negative).
example(e713,f7,negative).
example(e713,f8,negative).
example(e714,f1,negative).
example(e714,f2,negative).
example(e714,f3,negative).
example(e714,f4,negative).
example(e714,f5,negative).
example(e714,f6,negative).
example(e714,f7,negative).
example(e714,f8,negative).
example(e715,f1,negative).
example(e715,f2,negative).
example(e715,f3,negative).
example(e715,f4,negative).
example(e715,f5,negative).
example(e715,f6,negative).
example(e715,f7,negative).
example(e715,f8,negative).
example(e716,f1,negative).
example(e716,f2,negative).
example(e716,f3,negative).
example(e716,f4,negative).
example(e716,f5,negative).
example(e716,f6,negative).
example(e716,f7,negative).
example(e716,f8,negative).
example(e717,f1,negative).
example(e717,f2,negative).
example(e717,f3,negative).
example(e717,f4,negative).
example(e717,f5,negative).
example(e717,f6,negative).
example(e717,f7,negative).
example(e717,f8,negative).
example(e718,f1,negative).
example(e718,f2,negative).
example(e718,f3,negative).
example(e718,f4,negative).
example(e718,f5,negative).
example(e718,f6,negative).
example(e718,f7,negative).
example(e718,f8,negative).
example(e719,f1,positive).
example(e719,f2,negative).
example(e719,f3,negative).
example(e719,f4,negative).
example(e719,f5,negative).
example(e719,f6,negative).
example(e719,f7,negative).
example(e719,f8,negative).
example(e720,f1,negative).
example(e720,f2,negative).
example(e720,f3,negative).
example(e720,f4,negative).
example(e720,f5,negative).
example(e720,f6,negative).
example(e720,f7,negative).
example(e720,f8,negative).
example(e721,f1,negative).
example(e721,f2,negative).
example(e721,f3,negative).
example(e721,f4,negative).
example(e721,f5,negative).
example(e721,f6,negative).
example(e721,f7,negative).
example(e721,f8,negative).
example(e722,f1,positive).
example(e722,f2,negative).
example(e722,f3,negative).
example(e722,f4,negative).
example(e722,f5,negative).
example(e722,f6,negative).
example(e722,f7,negative).
example(e722,f8,negative).
example(e723,f1,positive).
example(e723,f2,negative).
example(e723,f3,negative).
example(e723,f4,negative).
example(e723,f5,negative).
example(e723,f6,negative).
example(e723,f7,negative).
example(e723,f8,negative).
example(e724,f1,negative).
example(e724,f2,negative).
example(e724,f3,negative).
example(e724,f4,negative).
example(e724,f5,negative).
example(e724,f6,negative).
example(e724,f7,negative).
example(e724,f8,negative).
example(e725,f1,positive).
example(e725,f2,negative).
example(e725,f3,negative).
example(e725,f4,negative).
example(e725,f5,negative).
example(e725,f6,negative).
example(e725,f7,negative).
example(e725,f8,negative).
example(e726,f1,negative).
example(e726,f2,negative).
example(e726,f3,negative).
example(e726,f4,negative).
example(e726,f5,negative).
example(e726,f6,negative).
example(e726,f7,negative).
example(e726,f8,negative).
example(e727,f1,positive).
example(e727,f2,negative).
example(e727,f3,negative).
example(e727,f4,negative).
example(e727,f5,negative).
example(e727,f6,negative).
example(e727,f7,negative).
example(e727,f8,negative).
example(e728,f1,negative).
example(e728,f2,negative).
example(e728,f3,negative).
example(e728,f4,negative).
example(e728,f5,negative).
example(e728,f6,negative).
example(e728,f7,negative).
example(e728,f8,negative).
example(e729,f1,negative).
example(e729,f2,negative).
example(e729,f3,negative).
example(e729,f4,negative).
example(e729,f5,negative).
example(e729,f6,negative).
example(e729,f7,negative).
example(e729,f8,negative).
example(e730,f1,negative).
example(e730,f2,negative).
example(e730,f3,negative).
example(e730,f4,negative).
example(e730,f5,negative).
example(e730,f6,negative).
example(e730,f7,negative).
example(e730,f8,negative).
example(e731,f1,negative).
example(e731,f2,negative).
example(e731,f3,negative).
example(e731,f4,negative).
example(e731,f5,negative).
example(e731,f6,negative).
example(e731,f7,negative).
example(e731,f8,negative).
example(e732,f1,negative).
example(e732,f2,negative).
example(e732,f3,negative).
example(e732,f4,negative).
example(e732,f5,negative).
example(e732,f6,negative).
example(e732,f7,negative).
example(e732,f8,negative).
example(e733,f1,negative).
example(e733,f2,negative).
example(e733,f3,negative).
example(e733,f4,negative).
example(e733,f5,negative).
example(e733,f6,negative).
example(e733,f7,negative).
example(e733,f8,negative).
example(e734,f1,negative).
example(e734,f2,negative).
example(e734,f3,negative).
example(e734,f4,negative).
example(e734,f5,negative).
example(e734,f6,negative).
example(e734,f7,negative).
example(e734,f8,negative).
example(e735,f1,negative).
example(e735,f2,negative).
example(e735,f3,negative).
example(e735,f4,negative).
example(e735,f5,negative).
example(e735,f6,negative).
example(e735,f7,negative).
example(e735,f8,negative).
example(e736,f1,negative).
example(e736,f2,negative).
example(e736,f3,negative).
example(e736,f4,negative).
example(e736,f5,negative).
example(e736,f6,negative).
example(e736,f7,negative).
example(e736,f8,negative).
example(e737,f1,negative).
example(e737,f2,negative).
example(e737,f3,negative).
example(e737,f4,negative).
example(e737,f5,negative).
example(e737,f6,negative).
example(e737,f7,negative).
example(e737,f8,negative).
example(e738,f1,negative).
example(e738,f2,negative).
example(e738,f3,negative).
example(e738,f4,negative).
example(e738,f5,negative).
example(e738,f6,negative).
example(e738,f7,negative).
example(e738,f8,negative).
example(e739,f1,negative).
example(e739,f2,negative).
example(e739,f3,negative).
example(e739,f4,negative).
example(e739,f5,negative).
example(e739,f6,negative).
example(e739,f7,negative).
example(e739,f8,negative).
example(e740,f1,positive).
example(e740,f2,negative).
example(e740,f3,negative).
example(e740,f4,negative).
example(e740,f5,negative).
example(e740,f6,negative).
example(e740,f7,negative).
example(e740,f8,negative).
example(e741,f1,negative).
example(e741,f2,negative).
example(e741,f3,negative).
example(e741,f4,negative).
example(e741,f5,negative).
example(e741,f6,negative).
example(e741,f7,negative).
example(e741,f8,negative).
example(e742,f1,negative).
example(e742,f2,negative).
example(e742,f3,negative).
example(e742,f4,negative).
example(e742,f5,negative).
example(e742,f6,negative).
example(e742,f7,negative).
example(e742,f8,negative).
example(e743,f1,positive).
example(e743,f2,negative).
example(e743,f3,negative).
example(e743,f4,negative).
example(e743,f5,negative).
example(e743,f6,negative).
example(e743,f7,negative).
example(e743,f8,negative).
example(e744,f1,negative).
example(e744,f2,negative).
example(e744,f3,negative).
example(e744,f4,negative).
example(e744,f5,negative).
example(e744,f6,negative).
example(e744,f7,negative).
example(e744,f8,negative).
example(e745,f1,negative).
example(e745,f2,negative).
example(e745,f3,negative).
example(e745,f4,negative).
example(e745,f5,negative).
example(e745,f6,negative).
example(e745,f7,positive).
example(e745,f8,negative).
example(e746,f1,negative).
example(e746,f2,negative).
example(e746,f3,negative).
example(e746,f4,negative).
example(e746,f5,negative).
example(e746,f6,negative).
example(e746,f7,negative).
example(e746,f8,negative).
example(e747,f1,positive).
example(e747,f2,negative).
example(e747,f3,negative).
example(e747,f4,negative).
example(e747,f5,negative).
example(e747,f6,negative).
example(e747,f7,negative).
example(e747,f8,negative).
example(e748,f1,positive).
example(e748,f2,negative).
example(e748,f3,negative).
example(e748,f4,negative).
example(e748,f5,negative).
example(e748,f6,negative).
example(e748,f7,positive).
example(e748,f8,negative).
example(e749,f1,negative).
example(e749,f2,negative).
example(e749,f3,negative).
example(e749,f4,negative).
example(e749,f5,negative).
example(e749,f6,negative).
example(e749,f7,negative).
example(e749,f8,negative).
example(e750,f1,negative).
example(e750,f2,negative).
example(e750,f3,negative).
example(e750,f4,negative).
example(e750,f5,negative).
example(e750,f6,negative).
example(e750,f7,negative).
example(e750,f8,negative).
example(e751,f1,negative).
example(e751,f2,negative).
example(e751,f3,negative).
example(e751,f4,negative).
example(e751,f5,negative).
example(e751,f6,negative).
example(e751,f7,positive).
example(e751,f8,negative).
example(e752,f1,positive).
example(e752,f2,negative).
example(e752,f3,negative).
example(e752,f4,negative).
example(e752,f5,negative).
example(e752,f6,negative).
example(e752,f7,negative).
example(e752,f8,negative).
example(e753,f1,negative).
example(e753,f2,negative).
example(e753,f3,negative).
example(e753,f4,negative).
example(e753,f5,negative).
example(e753,f6,negative).
example(e753,f7,negative).
example(e753,f8,negative).
example(e754,f1,negative).
example(e754,f2,negative).
example(e754,f3,negative).
example(e754,f4,negative).
example(e754,f5,negative).
example(e754,f6,negative).
example(e754,f7,negative).
example(e754,f8,negative).
example(e755,f1,negative).
example(e755,f2,negative).
example(e755,f3,negative).
example(e755,f4,negative).
example(e755,f5,negative).
example(e755,f6,negative).
example(e755,f7,negative).
example(e755,f8,negative).
example(e756,f1,positive).
example(e756,f2,negative).
example(e756,f3,negative).
example(e756,f4,negative).
example(e756,f5,negative).
example(e756,f6,negative).
example(e756,f7,positive).
example(e756,f8,negative).
example(e757,f1,negative).
example(e757,f2,negative).
example(e757,f3,negative).
example(e757,f4,negative).
example(e757,f5,negative).
example(e757,f6,negative).
example(e757,f7,negative).
example(e757,f8,negative).
example(e758,f1,negative).
example(e758,f2,negative).
example(e758,f3,negative).
example(e758,f4,negative).
example(e758,f5,negative).
example(e758,f6,negative).
example(e758,f7,negative).
example(e758,f8,negative).
example(e759,f1,positive).
example(e759,f2,negative).
example(e759,f3,negative).
example(e759,f4,negative).
example(e759,f5,negative).
example(e759,f6,negative).
example(e759,f7,negative).
example(e759,f8,negative).
example(e760,f1,negative).
example(e760,f2,negative).
example(e760,f3,negative).
example(e760,f4,negative).
example(e760,f5,negative).
example(e760,f6,negative).
example(e760,f7,negative).
example(e760,f8,negative).
example(e761,f1,negative).
example(e761,f2,negative).
example(e761,f3,negative).
example(e761,f4,negative).
example(e761,f5,negative).
example(e761,f6,negative).
example(e761,f7,negative).
example(e761,f8,negative).
example(e762,f1,negative).
example(e762,f2,negative).
example(e762,f3,negative).
example(e762,f4,negative).
example(e762,f5,negative).
example(e762,f6,negative).
example(e762,f7,negative).
example(e762,f8,negative).
example(e763,f1,negative).
example(e763,f2,negative).
example(e763,f3,negative).
example(e763,f4,negative).
example(e763,f5,negative).
example(e763,f6,negative).
example(e763,f7,negative).
example(e763,f8,negative).
example(e764,f1,negative).
example(e764,f2,negative).
example(e764,f3,negative).
example(e764,f4,negative).
example(e764,f5,negative).
example(e764,f6,negative).
example(e764,f7,negative).
example(e764,f8,negative).
example(e765,f1,negative).
example(e765,f2,negative).
example(e765,f3,negative).
example(e765,f4,negative).
example(e765,f5,negative).
example(e765,f6,negative).
example(e765,f7,negative).
example(e765,f8,negative).
example(e766,f1,negative).
example(e766,f2,negative).
example(e766,f3,negative).
example(e766,f4,negative).
example(e766,f5,negative).
example(e766,f6,negative).
example(e766,f7,negative).
example(e766,f8,negative).
example(e767,f1,positive).
example(e767,f2,negative).
example(e767,f3,negative).
example(e767,f4,negative).
example(e767,f5,negative).
example(e767,f6,negative).
example(e767,f7,negative).
example(e767,f8,negative).
example(e768,f1,positive).
example(e768,f2,negative).
example(e768,f3,negative).
example(e768,f4,negative).
example(e768,f5,negative).
example(e768,f6,negative).
example(e768,f7,negative).
example(e768,f8,negative).
target(e1,positive).
target(e2,negative).
target(e3,positive).
target(e4,negative).
target(e5,positive).
target(e6,negative).
target(e7,positive).
target(e8,negative).
target(e9,positive).
target(e10,positive).
target(e11,negative).
target(e12,positive).
target(e13,negative).
target(e14,positive).
target(e15,positive).
target(e16,positive).
target(e17,positive).
target(e18,positive).
target(e19,negative).
target(e20,positive).
target(e21,negative).
target(e22,negative).
target(e23,positive).
target(e24,positive).
target(e25,positive).
target(e26,positive).
target(e27,positive).
target(e28,negative).
target(e29,negative).
target(e30,negative).
target(e31,negative).
target(e32,positive).
target(e33,negative).
target(e34,negative).
target(e35,negative).
target(e36,negative).
target(e37,negative).
target(e38,positive).
target(e39,positive).
target(e40,positive).
target(e41,negative).
target(e42,negative).
target(e43,negative).
target(e44,positive).
target(e45,negative).
target(e46,positive).
target(e47,negative).
target(e48,negative).
target(e49,positive).
target(e50,negative).
target(e51,negative).
target(e52,negative).
target(e53,negative).
target(e54,positive).
target(e55,negative).
target(e56,negative).
target(e57,positive).
target(e58,negative).
target(e59,negative).
target(e60,negative).
target(e61,negative).
target(e62,positive).
target(e63,negative).
target(e64,negative).
target(e65,positive).
target(e66,negative).
target(e67,positive).
target(e68,negative).
target(e69,negative).
target(e70,negative).
target(e71,positive).
target(e72,negative).
target(e73,positive).
target(e74,negative).
target(e75,negative).
target(e76,negative).
target(e77,negative).
target(e78,negative).
target(e79,positive).
target(e80,negative).
target(e81,negative).
target(e82,negative).
target(e83,negative).
target(e84,negative).
target(e85,positive).
target(e86,negative).
target(e87,negative).
target(e88,negative).
target(e89,positive).
target(e90,negative).
target(e91,negative).
target(e92,negative).
target(e93,negative).
target(e94,positive).
target(e95,negative).
target(e96,negative).
target(e97,negative).
target(e98,negative).
target(e99,negative).
target(e100,positive).
target(e101,positive).
target(e102,negative).
target(e103,negative).
target(e104,negative).
target(e105,negative).
target(e106,negative).
target(e107,negative).
target(e108,negative).
target(e109,negative).
target(e110,positive).
target(e111,positive).
target(e112,positive).
target(e113,negative).
target(e114,negative).
target(e115,positive).
target(e116,positive).
target(e117,positive).
target(e118,negative).
target(e119,negative).
target(e120,negative).
target(e121,positive).
target(e122,negative).
target(e123,negative).
target(e124,negative).
target(e125,positive).
target(e126,positive).
target(e127,negative).
target(e128,negative).
target(e129,positive).
target(e130,positive).
target(e131,positive).
target(e132,positive).
target(e133,positive).
target(e134,negative).
target(e135,negative).
target(e136,negative).
target(e137,negative).
target(e138,negative).
target(e139,negative).
target(e140,negative).
target(e141,negative).
target(e142,negative).
target(e143,negative).
target(e144,positive).
target(e145,negative).
target(e146,negative).
target(e147,negative).
target(e148,negative).
target(e149,negative).
target(e150,negative).
target(e151,negative).
target(e152,negative).
target(e153,positive).
target(e154,negative).
target(e155,positive).
target(e156,positive).
target(e157,negative).
target(e158,negative).
target(e159,negative).
target(e160,positive).
target(e161,negative).
target(e162,negative).
target(e163,negative).
target(e164,negative).
target(e165,positive).
target(e166,positive).
target(e167,negative).
target(e168,negative).
target(e169,negative).
target(e170,negative).
target(e171,positive).
target(e172,positive).
target(e173,negative).
target(e174,negative).
target(e175,negative).
target(e176,positive).
target(e177,negative).
target(e178,positive).
target(e179,negative).
target(e180,positive).
target(e181,negative).
target(e182,negative).
target(e183,negative).
target(e184,negative).
target(e185,negative).
target(e186,positive).
target(e187,positive).
target(e188,positive).
target(e189,positive).
target(e190,positive).
target(e191,negative).
target(e192,negative).
target(e193,positive).
target(e194,positive).
target(e195,negative).
target(e196,positive).
target(e197,negative).
target(e198,positive).
target(e199,positive).
target(e200,positive).
target(e201,negative).
target(e202,negative).
target(e203,negative).
target(e204,negative).
target(e205,negative).
target(e206,negative).
target(e207,positive).
target(e208,positive).
target(e209,negative).
target(e210,positive).
target(e211,negative).
target(e212,negative).
target(e213,negative).
target(e214,positive).
target(e215,positive).
target(e216,positive).
target(e217,positive).
target(e218,negative).
target(e219,positive).
target(e220,positive).
target(e221,positive).
target(e222,positive).
target(e223,negative).
target(e224,negative).
target(e225,negative).
target(e226,negative).
target(e227,negative).
target(e228,positive).
target(e229,negative).
target(e230,negative).
target(e231,positive).
target(e232,positive).
target(e233,negative).
target(e234,negative).
target(e235,negative).
target(e236,positive).
target(e237,positive).
target(e238,positive).
target(e239,positive).
target(e240,negative).
target(e241,negative).
target(e242,negative).
target(e243,positive).
target(e244,positive).
target(e245,negative).
target(e246,positive).
target(e247,negative).
target(e248,negative).
target(e249,negative).
target(e250,negative).
target(e251,negative).
target(e252,negative).
target(e253,negative).
target(e254,negative).
target(e255,positive).
target(e256,positive).
target(e257,negative).
target(e258,negative).
target(e259,negative).
target(e260,positive).
target(e261,negative).
target(e262,positive).
target(e263,negative).
target(e264,negative).
target(e265,positive).
target(e266,negative).
target(e267,positive).
target(e268,negative).
target(e269,negative).
target(e270,positive).
target(e271,positive).
target(e272,negative).
target(e273,negative).
target(e274,negative).
target(e275,negative).
target(e276,negative).
target(e277,positive).
target(e278,negative).
target(e279,negative).
target(e280,negative).
target(e281,positive).
target(e282,negative).
target(e283,negative).
target(e284,positive).
target(e285,positive).
target(e286,negative).
target(e287,negative).
target(e288,positive).
target(e289,negative).
target(e290,negative).
target(e291,negative).
target(e292,positive).
target(e293,positive).
target(e294,positive).
target(e295,negative).
target(e296,negative).
target(e297,positive).
target(e298,negative).
target(e299,positive).
target(e300,negative).
target(e301,positive).
target(e302,positive).
target(e303,negative).
target(e304,positive).
target(e305,negative).
target(e306,negative).
target(e307,positive).
target(e308,negative).
target(e309,positive).
target(e310,positive).
target(e311,negative).
target(e312,negative).
target(e313,positive).
target(e314,negative).
target(e315,positive).
target(e316,negative).
target(e317,negative).
target(e318,positive).
target(e319,negative).
target(e320,positive).
target(e321,negative).
target(e322,positive).
target(e323,positive).
target(e324,positive).
target(e325,negative).
target(e326,negative).
target(e327,positive).
target(e328,negative).
target(e329,positive).
target(e330,negative).
target(e331,negative).
target(e332,negative).
target(e333,positive).
target(e334,negative).
target(e335,negative).
target(e336,negative).
target(e337,negative).
target(e338,positive).
target(e339,positive).
target(e340,positive).
target(e341,negative).
target(e342,negative).
target(e343,negative).
target(e344,negative).
target(e345,negative).
target(e346,negative).
target(e347,negative).
target(e348,negative).
target(e349,negative).
target(e350,positive).
target(e351,negative).
target(e352,negative).
target(e353,negative).
target(e354,negative).
target(e355,negative).
target(e356,positive).
target(e357,positive).
target(e358,positive).
target(e359,negative).
target(e360,positive).
target(e361,positive).
target(e362,negative).
target(e363,negative).
target(e364,positive).
target(e365,negative).
target(e366,negative).
target(e367,positive).
target(e368,negative).
target(e369,negative).
target(e370,positive).
target(e371,positive).
target(e372,negative).
target(e373,negative).
target(e374,negative).
target(e375,negative).
target(e376,positive).
target(e377,negative).
target(e378,negative).
target(e379,positive).
target(e380,negative).
target(e381,negative).
target(e382,negative).
target(e383,negative).
target(e384,negative).
target(e385,negative).
target(e386,negative).
target(e387,positive).
target(e388,positive).
target(e389,positive).
target(e390,negative).
target(e391,negative).
target(e392,positive).
target(e393,negative).
target(e394,negative).
target(e395,positive).
target(e396,negative).
target(e397,negative).
target(e398,positive).
target(e399,negative).
target(e400,positive).
target(e401,positive).
target(e402,negative).
target(e403,positive).
target(e404,negative).
target(e405,positive).
target(e406,negative).
target(e407,positive).
target(e408,negative).
target(e409,positive).
target(e410,positive).
target(e411,negative).
target(e412,negative).
target(e413,negative).
target(e414,negative).
target(e415,positive).
target(e416,positive).
target(e417,negative).
target(e418,positive).
target(e419,negative).
target(e420,positive).
target(e421,negative).
target(e422,negative).
target(e423,negative).
target(e424,negative).
target(e425,positive).
target(e426,positive).
target(e427,negative).
target(e428,positive).
target(e429,negative).
target(e430,positive).
target(e431,negative).
target(e432,negative).
target(e433,negative).
target(e434,negative).
target(e435,negative).
target(e436,positive).
target(e437,negative).
target(e438,negative).
target(e439,negative).
target(e440,negative).
target(e441,positive).
target(e442,negative).
target(e443,negative).
target(e444,positive).
target(e445,positive).
target(e446,positive).
target(e447,negative).
target(e448,negative).
target(e449,positive).
target(e450,negative).
target(e451,negative).
target(e452,positive).
target(e453,negative).
target(e454,negative).
target(e455,negative).
target(e456,positive).
target(e457,negative).
target(e458,negative).
target(e459,positive).
target(e460,negative).
target(e461,negative).
target(e462,negative).
target(e463,negative).
target(e464,negative).
target(e465,negative).
target(e466,negative).
target(e467,negative).
target(e468,negative).
target(e469,positive).
target(e470,negative).
target(e471,negative).
target(e472,negative).
target(e473,negative).
target(e474,negative).
target(e475,negative).
target(e476,negative).
target(e477,positive).
target(e478,negative).
target(e479,negative).
target(e480,negative).
target(e481,positive).
target(e482,negative).
target(e483,negative).
target(e484,negative).
target(e485,positive).
target(e486,positive).
target(e487,negative).
target(e488,negative).
target(e489,negative).
target(e490,negative).
target(e491,negative).
target(e492,negative).
target(e493,negative).
target(e494,positive).
target(e495,negative).
target(e496,negative).
target(e497,negative).
target(e498,negative).
target(e499,positive).
target(e500,negative).
target(e501,negative).
target(e502,negative).
target(e503,positive).
target(e504,negative).
target(e505,negative).
target(e506,negative).
target(e507,positive).
target(e508,negative).
target(e509,negative).
target(e510,negative).
target(e511,positive).
target(e512,negative).
target(e513,negative).
target(e514,negative).
target(e515,negative).
target(e516,positive).
target(e517,positive).
target(e518,negative).
target(e519,negative).
target(e520,negative).
target(e521,negative).
target(e522,negative).
target(e523,negative).
target(e524,positive).
target(e525,negative).
target(e526,negative).
target(e527,negative).
target(e528,negative).
target(e529,negative).
target(e530,negative).
target(e531,negative).
target(e532,negative).
target(e533,negative).
target(e534,negative).
target(e535,negative).
target(e536,positive).
target(e537,negative).
target(e538,negative).
target(e539,negative).
target(e540,positive).
target(e541,positive).
target(e542,positive).
target(e543,positive).
target(e544,negative).
target(e545,negative).
target(e546,positive).
target(e547,positive).
target(e548,negative).
target(e549,negative).
target(e550,negative).
target(e551,negative).
target(e552,negative).
target(e553,negative).
target(e554,negative).
target(e555,negative).
target(e556,negative).
target(e557,negative).
target(e558,negative).
target(e559,negative).
target(e560,negative).
target(e561,positive).
target(e562,positive).
target(e563,negative).
target(e564,negative).
target(e565,negative).
target(e566,negative).
target(e567,negative).
target(e568,negative).
target(e569,negative).
target(e570,positive).
target(e571,negative).
target(e572,negative).
target(e573,negative).
target(e574,negative).
target(e575,negative).
target(e576,negative).
target(e577,negative).
target(e578,positive).
target(e579,negative).
target(e580,positive).
target(e581,positive).
target(e582,negative).
target(e583,negative).
target(e584,negative).
target(e585,positive).
target(e586,negative).
target(e587,positive).
target(e588,negative).
target(e589,positive).
target(e590,negative).
target(e591,positive).
target(e592,negative).
target(e593,positive).
target(e594,negative).
target(e595,negative).
target(e596,positive).
target(e597,negative).
target(e598,negative).
target(e599,positive).
target(e600,negative).
target(e601,negative).
target(e602,negative).
target(e603,negative).
target(e604,positive).
target(e605,positive).
target(e606,negative).
target(e607,positive).
target(e608,negative).
target(e609,negative).
target(e610,negative).
target(e611,negative).
target(e612,positive).
target(e613,positive).
target(e614,negative).
target(e615,positive).
target(e616,negative).
target(e617,negative).
target(e618,negative).
target(e619,positive).
target(e620,positive).
target(e621,negative).
target(e622,negative).
target(e623,negative).
target(e624,negative).
target(e625,negative).
target(e626,negative).
target(e627,negative).
target(e628,negative).
target(e629,negative).
target(e630,negative).
target(e631,positive).
target(e632,negative).
target(e633,negative).
target(e634,negative).
target(e635,negative).
target(e636,positive).
target(e637,negative).
target(e638,negative).
target(e639,positive).
target(e640,negative).
target(e641,negative).
target(e642,negative).
target(e643,positive).
target(e644,negative).
target(e645,negative).
target(e646,negative).
target(e647,positive).
target(e648,positive).
target(e649,positive).
target(e650,negative).
target(e651,negative).
target(e652,negative).
target(e653,negative).
target(e654,negative).
target(e655,negative).
target(e656,positive).
target(e657,negative).
target(e658,negative).
target(e659,negative).
target(e660,positive).
target(e661,negative).
target(e662,positive).
target(e663,positive).
target(e664,positive).
target(e665,positive).
target(e666,negative).
target(e667,positive).
target(e668,positive).
target(e669,negative).
target(e670,negative).
target(e671,negative).
target(e672,negative).
target(e673,negative).
target(e674,negative).
target(e675,negative).
target(e676,positive).
target(e677,positive).
target(e678,negative).
target(e679,positive).
target(e680,negative).
target(e681,negative).
target(e682,positive).
target(e683,negative).
target(e684,positive).
target(e685,negative).
target(e686,negative).
target(e687,negative).
target(e688,negative).
target(e689,negative).
target(e690,positive).
target(e691,negative).
target(e692,positive).
target(e693,negative).
target(e694,positive).
target(e695,negative).
target(e696,positive).
target(e697,positive).
target(e698,negative).
target(e699,negative).
target(e700,negative).
target(e701,negative).
target(e702,positive).
target(e703,positive).
target(e704,negative).
target(e705,negative).
target(e706,negative).
target(e707,positive).
target(e708,negative).
target(e709,positive).
target(e710,positive).
target(e711,negative).
target(e712,negative).
target(e713,positive).
target(e714,negative).
target(e715,negative).
target(e716,positive).
target(e717,positive).
target(e718,negative).
target(e719,negative).
target(e720,positive).
target(e721,negative).
target(e722,negative).
target(e723,positive).
target(e724,negative).
target(e725,negative).
target(e726,negative).
target(e727,negative).
target(e728,negative).
target(e729,negative).
target(e730,negative).
target(e731,positive).
target(e732,positive).
target(e733,positive).
target(e734,negative).
target(e735,negative).
target(e736,negative).
target(e737,negative).
target(e738,negative).
target(e739,negative).
target(e740,positive).
target(e741,positive).
target(e742,negative).
target(e743,negative).
target(e744,positive).
target(e745,negative).
target(e746,negative).
target(e747,positive).
target(e748,negative).
target(e749,positive).
target(e750,positive).
target(e751,positive).
target(e752,negative).
target(e753,negative).
target(e754,positive).
target(e755,positive).
target(e756,positive).
target(e757,negative).
target(e758,positive).
target(e759,negative).
target(e760,positive).
target(e761,negative).
target(e762,positive).
target(e763,negative).
target(e764,negative).
target(e765,negative).
target(e766,negative).
target(e767,positive).
target(e768,negative).
feature(f1; f2; f3; f4; f5; f6; f7; f8).
% |--- f2 <= 127.50
% |   |--- f8 <= 28.50
% |   |   |--- f6 <= 45.40
% |   |   |   |--- f6 <= 30.95
% |   |   |   |   |--- f1 <= 7.50
% |   |   |   |   |   |--- f7 <= 0.67
% |   |   |   |   |   |   |--- class: 0
% |   |   |   |   |   |--- f7 >  0.67
% |   |   |   |   |   |   |--- f7 <= 0.69
% |   |   |   |   |   |   |   |--- class: 1
% |   |   |   |   |   |   |--- f7 >  0.69
% |   |   |   |   |   |   |   |--- class: 0
% |   |   |   |   |--- f1 >  7.50
% |   |   |   |   |   |--- class: 1
% |   |   |   |--- f6 >  30.95
% |   |   |   |   |--- f7 <= 0.50
% |   |   |   |   |   |--- f3 <= 53.00
% |   |   |   |   |   |   |--- f5 <= 31.50
% |   |   |   |   |   |   |   |--- class: 1
% |   |   |   |   |   |   |--- f5 >  31.50
% |   |   |   |   |   |   |   |--- f1 <= 2.50
% |   |   |   |   |   |   |   |   |--- class: 0
% |   |   |   |   |   |   |   |--- f1 >  2.50
% |   |   |   |   |   |   |   |   |--- class: 1
% |   |   |   |   |   |--- f3 >  53.00
% |   |   |   |   |   |   |--- f5 <= 36.50
% |   |   |   |   |   |   |   |--- f5 <= 34.00
% |   |   |   |   |   |   |   |   |--- f6 <= 33.65
% |   |   |   |   |   |   |   |   |   |--- f3 <= 71.00
% |   |   |   |   |   |   |   |   |   |   |--- class: 0
% |   |   |   |   |   |   |   |   |   |--- f3 >  71.00
% |   |   |   |   |   |   |   |   |   |   |--- f7 <= 0.34
% |   |   |   |   |   |   |   |   |   |   |   |--- class: 1
% |   |   |   |   |   |   |   |   |   |   |--- f7 >  0.34
% |   |   |   |   |   |   |   |   |   |   |   |--- class: 0
% |   |   |   |   |   |   |   |   |--- f6 >  33.65
% |   |   |   |   |   |   |   |   |   |--- class: 0
% |   |   |   |   |   |   |   |--- f5 >  34.00
% |   |   |   |   |   |   |   |   |--- class: 1
% |   |   |   |   |   |   |--- f5 >  36.50
% |   |   |   |   |   |   |   |--- class: 0
% |   |   |   |   |--- f7 >  0.50
% |   |   |   |   |   |--- f3 <= 69.00
% |   |   |   |   |   |   |--- f2 <= 88.50
% |   |   |   |   |   |   |   |--- class: 0
% |   |   |   |   |   |   |--- f2 >  88.50
% |   |   |   |   |   |   |   |--- f2 <= 116.00
% |   |   |   |   |   |   |   |   |--- f7 <= 0.93
% |   |   |   |   |   |   |   |   |   |--- f1 <= 0.50
% |   |   |   |   |   |   |   |   |   |   |--- f2 <= 100.50
% |   |   |   |   |   |   |   |   |   |   |   |--- class: 0
% |   |   |   |   |   |   |   |   |   |   |--- f2 >  100.50
% |   |   |   |   |   |   |   |   |   |   |   |--- class: 1
% |   |   |   |   |   |   |   |   |   |--- f1 >  0.50
% |   |   |   |   |   |   |   |   |   |   |--- class: 1
% |   |   |   |   |   |   |   |   |--- f7 >  0.93
% |   |   |   |   |   |   |   |   |   |--- class: 0
% |   |   |   |   |   |   |   |--- f2 >  116.00
% |   |   |   |   |   |   |   |   |--- f6 <= 34.10
% |   |   |   |   |   |   |   |   |   |--- class: 1
% |   |   |   |   |   |   |   |   |--- f6 >  34.10
% |   |   |   |   |   |   |   |   |   |--- class: 0
% |   |   |   |   |   |--- f3 >  69.00
% |   |   |   |   |   |   |--- f7 <= 1.10
% |   |   |   |   |   |   |   |--- f4 <= 5.50
% |   |   |   |   |   |   |   |   |--- f2 <= 112.50
% |   |   |   |   |   |   |   |   |   |--- class: 0
% |   |   |   |   |   |   |   |   |--- f2 >  112.50
% |   |   |   |   |   |   |   |   |   |--- f7 <= 0.80
% |   |   |   |   |   |   |   |   |   |   |--- class: 1
% |   |   |   |   |   |   |   |   |   |--- f7 >  0.80
% |   |   |   |   |   |   |   |   |   |   |--- class: 0
% |   |   |   |   |   |   |   |--- f4 >  5.50
% |   |   |   |   |   |   |   |   |--- class: 0
% |   |   |   |   |   |   |--- f7 >  1.10
% |   |   |   |   |   |   |   |--- class: 1
% |   |   |--- f6 >  45.40
% |   |   |   |--- f5 <= 180.00
% |   |   |   |   |--- class: 1
% |   |   |   |--- f5 >  180.00
% |   |   |   |   |--- class: 0
% |   |--- f8 >  28.50
% |   |   |--- f6 <= 26.35
% |   |   |   |--- f6 <= 9.65
% |   |   |   |   |--- class: 1
% |   |   |   |--- f6 >  9.65
% |   |   |   |   |--- class: 0
% |   |   |--- f6 >  26.35
% |   |   |   |--- f2 <= 99.50
% |   |   |   |   |--- f2 <= 28.50
% |   |   |   |   |   |--- class: 1
% |   |   |   |   |--- f2 >  28.50
% |   |   |   |   |   |--- f7 <= 0.80
% |   |   |   |   |   |   |--- f2 <= 94.50
% |   |   |   |   |   |   |   |--- f1 <= 11.50
% |   |   |   |   |   |   |   |   |--- class: 0
% |   |   |   |   |   |   |   |--- f1 >  11.50
% |   |   |   |   |   |   |   |   |--- f6 <= 31.25
% |   |   |   |   |   |   |   |   |   |--- class: 1
% |   |   |   |   |   |   |   |   |--- f6 >  31.25
% |   |   |   |   |   |   |   |   |   |--- class: 0
% |   |   |   |   |   |   |--- f2 >  94.50
% |   |   |   |   |   |   |   |--- f2 <= 97.50
% |   |   |   |   |   |   |   |   |--- f6 <= 36.20
% |   |   |   |   |   |   |   |   |   |--- class: 1
% |   |   |   |   |   |   |   |   |--- f6 >  36.20
% |   |   |   |   |   |   |   |   |   |--- class: 0
% |   |   |   |   |   |   |   |--- f2 >  97.50
% |   |   |   |   |   |   |   |   |--- class: 0
% |   |   |   |   |   |--- f7 >  0.80
% |   |   |   |   |   |   |--- f4 <= 35.50
% |   |   |   |   |   |   |   |--- f4 <= 20.00
% |   |   |   |   |   |   |   |   |--- f8 <= 43.50
% |   |   |   |   |   |   |   |   |   |--- class: 0
% |   |   |   |   |   |   |   |   |--- f8 >  43.50
% |   |   |   |   |   |   |   |   |   |--- class: 1
% |   |   |   |   |   |   |   |--- f4 >  20.00
% |   |   |   |   |   |   |   |   |--- class: 1
% |   |   |   |   |   |   |--- f4 >  35.50
% |   |   |   |   |   |   |   |--- class: 0
% |   |   |   |--- f2 >  99.50
% |   |   |   |   |--- f7 <= 0.56
% |   |   |   |   |   |--- f7 <= 0.20
% |   |   |   |   |   |   |--- f6 <= 27.65
% |   |   |   |   |   |   |   |--- class: 1
% |   |   |   |   |   |   |--- f6 >  27.65
% |   |   |   |   |   |   |   |--- f4 <= 9.50
% |   |   |   |   |   |   |   |   |--- f2 <= 118.50
% |   |   |   |   |   |   |   |   |   |--- f2 <= 103.00
% |   |   |   |   |   |   |   |   |   |   |--- f3 <= 79.00
% |   |   |   |   |   |   |   |   |   |   |   |--- class: 0
% |   |   |   |   |   |   |   |   |   |   |--- f3 >  79.00
% |   |   |   |   |   |   |   |   |   |   |   |--- class: 1
% |   |   |   |   |   |   |   |   |   |--- f2 >  103.00
% |   |   |   |   |   |   |   |   |   |   |--- class: 0
% |   |   |   |   |   |   |   |   |--- f2 >  118.50
% |   |   |   |   |   |   |   |   |   |--- f3 <= 91.00
% |   |   |   |   |   |   |   |   |   |   |--- class: 1
% |   |   |   |   |   |   |   |   |   |--- f3 >  91.00
% |   |   |   |   |   |   |   |   |   |   |--- class: 0
% |   |   |   |   |   |   |   |--- f4 >  9.50
% |   |   |   |   |   |   |   |   |--- class: 0
% |   |   |   |   |   |--- f7 >  0.20
% |   |   |   |   |   |   |--- f1 <= 1.50
% |   |   |   |   |   |   |   |--- f2 <= 113.00
% |   |   |   |   |   |   |   |   |--- f6 <= 36.15
% |   |   |   |   |   |   |   |   |   |--- class: 0
% |   |   |   |   |   |   |   |   |--- f6 >  36.15
% |   |   |   |   |   |   |   |   |   |--- class: 1
% |   |   |   |   |   |   |   |--- f2 >  113.00
% |   |   |   |   |   |   |   |   |--- class: 1
% |   |   |   |   |   |   |--- f1 >  1.50
% |   |   |   |   |   |   |   |--- f3 <= 67.00
% |   |   |   |   |   |   |   |   |--- f7 <= 0.36
% |   |   |   |   |   |   |   |   |   |--- class: 1
% |   |   |   |   |   |   |   |   |--- f7 >  0.36
% |   |   |   |   |   |   |   |   |   |--- f6 <= 30.05
% |   |   |   |   |   |   |   |   |   |   |--- class: 1
% |   |   |   |   |   |   |   |   |   |--- f6 >  30.05
% |   |   |   |   |   |   |   |   |   |   |--- class: 0
% |   |   |   |   |   |   |   |--- f3 >  67.00
% |   |   |   |   |   |   |   |   |--- f6 <= 34.45
% |   |   |   |   |   |   |   |   |   |--- f3 <= 83.00
% |   |   |   |   |   |   |   |   |   |   |--- f2 <= 120.00
% |   |   |   |   |   |   |   |   |   |   |   |--- truncated branch of depth 2
% |   |   |   |   |   |   |   |   |   |   |--- f2 >  120.00
% |   |   |   |   |   |   |   |   |   |   |   |--- truncated branch of depth 3
% |   |   |   |   |   |   |   |   |   |--- f3 >  83.00
% |   |   |   |   |   |   |   |   |   |   |--- class: 0
% |   |   |   |   |   |   |   |   |--- f6 >  34.45
% |   |   |   |   |   |   |   |   |   |--- f1 <= 11.50
% |   |   |   |   |   |   |   |   |   |   |--- f6 <= 43.10
% |   |   |   |   |   |   |   |   |   |   |   |--- class: 0
% |   |   |   |   |   |   |   |   |   |   |--- f6 >  43.10
% |   |   |   |   |   |   |   |   |   |   |   |--- class: 1
% |   |   |   |   |   |   |   |   |   |--- f1 >  11.50
% |   |   |   |   |   |   |   |   |   |   |--- class: 1
% |   |   |   |   |--- f7 >  0.56
% |   |   |   |   |   |--- f1 <= 6.50
% |   |   |   |   |   |   |--- f5 <= 120.50
% |   |   |   |   |   |   |   |--- f8 <= 34.50
% |   |   |   |   |   |   |   |   |--- class: 0
% |   |   |   |   |   |   |   |--- f8 >  34.50
% |   |   |   |   |   |   |   |   |--- f6 <= 33.15
% |   |   |   |   |   |   |   |   |   |--- class: 1
% |   |   |   |   |   |   |   |   |--- f6 >  33.15
% |   |   |   |   |   |   |   |   |   |--- class: 0
% |   |   |   |   |   |   |--- f5 >  120.50
% |   |   |   |   |   |   |   |--- f5 <= 225.00
% |   |   |   |   |   |   |   |   |--- f4 <= 47.50
% |   |   |   |   |   |   |   |   |   |--- class: 1
% |   |   |   |   |   |   |   |   |--- f4 >  47.50
% |   |   |   |   |   |   |   |   |   |--- class: 0
% |   |   |   |   |   |   |   |--- f5 >  225.00
% |   |   |   |   |   |   |   |   |--- class: 0
% |   |   |   |   |   |--- f1 >  6.50
% |   |   |   |   |   |   |--- class: 1
% |--- f2 >  127.50
% |   |--- f6 <= 29.95
% |   |   |--- f2 <= 145.50
% |   |   |   |--- f5 <= 132.50
% |   |   |   |   |--- f6 <= 28.15
% |   |   |   |   |   |--- f3 <= 73.00
% |   |   |   |   |   |   |--- f1 <= 2.50
% |   |   |   |   |   |   |   |--- class: 0
% |   |   |   |   |   |   |--- f1 >  2.50
% |   |   |   |   |   |   |   |--- f1 <= 5.00
% |   |   |   |   |   |   |   |   |--- f6 <= 23.45
% |   |   |   |   |   |   |   |   |   |--- class: 0
% |   |   |   |   |   |   |   |   |--- f6 >  23.45
% |   |   |   |   |   |   |   |   |   |--- class: 1
% |   |   |   |   |   |   |   |--- f1 >  5.00
% |   |   |   |   |   |   |   |   |--- class: 0
% |   |   |   |   |   |--- f3 >  73.00
% |   |   |   |   |   |   |--- class: 0
% |   |   |   |   |--- f6 >  28.15
% |   |   |   |   |   |--- f6 <= 28.55
% |   |   |   |   |   |   |--- class: 1
% |   |   |   |   |   |--- f6 >  28.55
% |   |   |   |   |   |   |--- f2 <= 135.00
% |   |   |   |   |   |   |   |--- class: 1
% |   |   |   |   |   |   |--- f2 >  135.00
% |   |   |   |   |   |   |   |--- class: 0
% |   |   |   |--- f5 >  132.50
% |   |   |   |   |--- class: 0
% |   |   |--- f2 >  145.50
% |   |   |   |--- f8 <= 25.50
% |   |   |   |   |--- class: 0
% |   |   |   |--- f8 >  25.50
% |   |   |   |   |--- f8 <= 61.00
% |   |   |   |   |   |--- f6 <= 27.10
% |   |   |   |   |   |   |--- f2 <= 151.00
% |   |   |   |   |   |   |   |--- class: 0
% |   |   |   |   |   |   |--- f2 >  151.00
% |   |   |   |   |   |   |   |--- class: 1
% |   |   |   |   |   |--- f6 >  27.10
% |   |   |   |   |   |   |--- f3 <= 82.00
% |   |   |   |   |   |   |   |--- f7 <= 0.40
% |   |   |   |   |   |   |   |   |--- f6 <= 27.45
% |   |   |   |   |   |   |   |   |   |--- class: 0
% |   |   |   |   |   |   |   |   |--- f6 >  27.45
% |   |   |   |   |   |   |   |   |   |--- class: 1
% |   |   |   |   |   |   |   |--- f7 >  0.40
% |   |   |   |   |   |   |   |   |--- class: 0
% |   |   |   |   |   |   |--- f3 >  82.00
% |   |   |   |   |   |   |   |--- class: 0
% |   |   |   |   |--- f8 >  61.00
% |   |   |   |   |   |--- class: 0
% |   |--- f6 >  29.95
% |   |   |--- f2 <= 157.50
% |   |   |   |--- f8 <= 30.50
% |   |   |   |   |--- f3 <= 61.00
% |   |   |   |   |   |--- class: 1
% |   |   |   |   |--- f3 >  61.00
% |   |   |   |   |   |--- f6 <= 41.80
% |   |   |   |   |   |   |--- f7 <= 1.14
% |   |   |   |   |   |   |   |--- f1 <= 4.50
% |   |   |   |   |   |   |   |   |--- f3 <= 73.00
% |   |   |   |   |   |   |   |   |   |--- f8 <= 25.50
% |   |   |   |   |   |   |   |   |   |   |--- f1 <= 0.50
% |   |   |   |   |   |   |   |   |   |   |   |--- truncated branch of depth 2
% |   |   |   |   |   |   |   |   |   |   |--- f1 >  0.50
% |   |   |   |   |   |   |   |   |   |   |   |--- class: 0
% |   |   |   |   |   |   |   |   |   |--- f8 >  25.50
% |   |   |   |   |   |   |   |   |   |   |--- f7 <= 0.25
% |   |   |   |   |   |   |   |   |   |   |   |--- class: 0
% |   |   |   |   |   |   |   |   |   |   |--- f7 >  0.25
% |   |   |   |   |   |   |   |   |   |   |   |--- class: 1
% |   |   |   |   |   |   |   |   |--- f3 >  73.00
% |   |   |   |   |   |   |   |   |   |--- class: 0
% |   |   |   |   |   |   |   |--- f1 >  4.50
% |   |   |   |   |   |   |   |   |--- f6 <= 35.45
% |   |   |   |   |   |   |   |   |   |--- class: 1
% |   |   |   |   |   |   |   |   |--- f6 >  35.45
% |   |   |   |   |   |   |   |   |   |--- class: 0
% |   |   |   |   |   |   |--- f7 >  1.14
% |   |   |   |   |   |   |   |--- class: 1
% |   |   |   |   |   |--- f6 >  41.80
% |   |   |   |   |   |   |--- f3 <= 85.50
% |   |   |   |   |   |   |   |--- f3 <= 73.00
% |   |   |   |   |   |   |   |   |--- class: 1
% |   |   |   |   |   |   |   |--- f3 >  73.00
% |   |   |   |   |   |   |   |   |--- class: 0
% |   |   |   |   |   |   |--- f3 >  85.50
% |   |   |   |   |   |   |   |--- class: 1
% |   |   |   |--- f8 >  30.50
% |   |   |   |   |--- f7 <= 0.43
% |   |   |   |   |   |--- f6 <= 45.55
% |   |   |   |   |   |   |--- f7 <= 0.14
% |   |   |   |   |   |   |   |--- class: 1
% |   |   |   |   |   |   |--- f7 >  0.14
% |   |   |   |   |   |   |   |--- f6 <= 32.45
% |   |   |   |   |   |   |   |   |--- class: 0
% |   |   |   |   |   |   |   |--- f6 >  32.45
% |   |   |   |   |   |   |   |   |--- f6 <= 33.05
% |   |   |   |   |   |   |   |   |   |--- class: 1
% |   |   |   |   |   |   |   |   |--- f6 >  33.05
% |   |   |   |   |   |   |   |   |   |--- f4 <= 30.00
% |   |   |   |   |   |   |   |   |   |   |--- f8 <= 42.00
% |   |   |   |   |   |   |   |   |   |   |   |--- class: 0
% |   |   |   |   |   |   |   |   |   |   |--- f8 >  42.00
% |   |   |   |   |   |   |   |   |   |   |   |--- truncated branch of depth 2
% |   |   |   |   |   |   |   |   |   |--- f4 >  30.00
% |   |   |   |   |   |   |   |   |   |   |--- f5 <= 44.00
% |   |   |   |   |   |   |   |   |   |   |   |--- class: 0
% |   |   |   |   |   |   |   |   |   |   |--- f5 >  44.00
% |   |   |   |   |   |   |   |   |   |   |   |--- class: 1
% |   |   |   |   |   |--- f6 >  45.55
% |   |   |   |   |   |   |--- class: 1
% |   |   |   |   |--- f7 >  0.43
% |   |   |   |   |   |--- f5 <= 333.50
% |   |   |   |   |   |   |--- f6 <= 40.05
% |   |   |   |   |   |   |   |--- class: 1
% |   |   |   |   |   |   |--- f6 >  40.05
% |   |   |   |   |   |   |   |--- f6 <= 40.90
% |   |   |   |   |   |   |   |   |--- class: 0
% |   |   |   |   |   |   |   |--- f6 >  40.90
% |   |   |   |   |   |   |   |   |--- class: 1
% |   |   |   |   |   |--- f5 >  333.50
% |   |   |   |   |   |   |--- f3 <= 64.00
% |   |   |   |   |   |   |   |--- class: 1
% |   |   |   |   |   |   |--- f3 >  64.00
% |   |   |   |   |   |   |   |--- class: 0
% |   |   |--- f2 >  157.50
% |   |   |   |--- f5 <= 629.50
% |   |   |   |   |--- f7 <= 0.30
% |   |   |   |   |   |--- f7 <= 0.29
% |   |   |   |   |   |   |--- f8 <= 37.50
% |   |   |   |   |   |   |   |--- f6 <= 45.60
% |   |   |   |   |   |   |   |   |--- f5 <= 87.50
% |   |   |   |   |   |   |   |   |   |--- f8 <= 25.50
% |   |   |   |   |   |   |   |   |   |   |--- class: 1
% |   |   |   |   |   |   |   |   |   |--- f8 >  25.50
% |   |   |   |   |   |   |   |   |   |   |--- class: 0
% |   |   |   |   |   |   |   |   |--- f5 >  87.50
% |   |   |   |   |   |   |   |   |   |--- class: 1
% |   |   |   |   |   |   |   |--- f6 >  45.60
% |   |   |   |   |   |   |   |   |--- class: 0
% |   |   |   |   |   |   |--- f8 >  37.50
% |   |   |   |   |   |   |   |--- f8 <= 56.50
% |   |   |   |   |   |   |   |   |--- class: 1
% |   |   |   |   |   |   |   |--- f8 >  56.50
% |   |   |   |   |   |   |   |   |--- f6 <= 34.85
% |   |   |   |   |   |   |   |   |   |--- class: 0
% |   |   |   |   |   |   |   |   |--- f6 >  34.85
% |   |   |   |   |   |   |   |   |   |--- class: 1
% |   |   |   |   |   |--- f7 >  0.29
% |   |   |   |   |   |   |--- class: 0
% |   |   |   |   |--- f7 >  0.30
% |   |   |   |   |   |--- f8 <= 44.00
% |   |   |   |   |   |   |--- class: 1
% |   |   |   |   |   |--- f8 >  44.00
% |   |   |   |   |   |   |--- f1 <= 6.50
% |   |   |   |   |   |   |   |--- f8 <= 51.00
% |   |   |   |   |   |   |   |   |--- class: 0
% |   |   |   |   |   |   |   |--- f8 >  51.00
% |   |   |   |   |   |   |   |   |--- f1 <= 0.50
% |   |   |   |   |   |   |   |   |   |--- class: 0
% |   |   |   |   |   |   |   |   |--- f1 >  0.50
% |   |   |   |   |   |   |   |   |   |--- class: 1
% |   |   |   |   |   |   |--- f1 >  6.50
% |   |   |   |   |   |   |   |--- class: 1
% |   |   |   |--- f5 >  629.50
% |   |   |   |   |--- f3 <= 65.00
% |   |   |   |   |   |--- class: 1
% |   |   |   |   |--- f3 >  65.00
% |   |   |   |   |   |--- class: 0
% Accuracy of the decision tree classifier on the training data: 1.00
% Depth of the decision tree classifier: 13
% Number of nodes in the decision tree classifier: 255
% Number of leaf nodes in the decision tree classifier: 128
