example(e1,f1,negative).
example(e1,f2,positive).
example(e1,f3,positive).
example(e1,f4,positive).
example(e1,f5,negative).
example(e1,f6,positive).
example(e1,f7,negative).
example(e1,f8,negative).
example(e1,f9,negative).
example(e1,f10,positive).
example(e2,f1,positive).
example(e2,f2,negative).
example(e2,f3,positive).
example(e2,f4,positive).
example(e2,f5,positive).
example(e2,f6,negative).
example(e2,f7,positive).
example(e2,f8,negative).
example(e2,f9,positive).
example(e2,f10,positive).
example(e3,f1,positive).
example(e3,f2,negative).
example(e3,f3,negative).
example(e3,f4,positive).
example(e3,f5,negative).
example(e3,f6,positive).
example(e3,f7,negative).
example(e3,f8,positive).
example(e3,f9,negative).
example(e3,f10,positive).
example(e4,f1,negative).
example(e4,f2,negative).
example(e4,f3,positive).
example(e4,f4,negative).
example(e4,f5,negative).
example(e4,f6,positive).
example(e4,f7,negative).
example(e4,f8,negative).
example(e4,f9,positive).
example(e4,f10,negative).
example(e5,f1,positive).
example(e5,f2,negative).
example(e5,f3,positive).
example(e5,f4,negative).
example(e5,f5,negative).
example(e5,f6,positive).
example(e5,f7,negative).
example(e5,f8,negative).
example(e5,f9,positive).
example(e5,f10,negative).
example(e6,f1,negative).
example(e6,f2,positive).
example(e6,f3,positive).
example(e6,f4,negative).
example(e6,f5,negative).
example(e6,f6,negative).
example(e6,f7,negative).
example(e6,f8,negative).
example(e6,f9,negative).
example(e6,f10,negative).
example(e7,f1,negative).
example(e7,f2,negative).
example(e7,f3,negative).
example(e7,f4,negative).
example(e7,f5,negative).
example(e7,f6,positive).
example(e7,f7,positive).
example(e7,f8,positive).
example(e7,f9,positive).
example(e7,f10,positive).
example(e8,f1,negative).
example(e8,f2,negative).
example(e8,f3,negative).
example(e8,f4,negative).
example(e8,f5,positive).
example(e8,f6,positive).
example(e8,f7,negative).
example(e8,f8,negative).
example(e8,f9,positive).
example(e8,f10,negative).
example(e9,f1,negative).
example(e9,f2,negative).
example(e9,f3,negative).
example(e9,f4,negative).
example(e9,f5,positive).
example(e9,f6,positive).
example(e9,f7,negative).
example(e9,f8,positive).
example(e9,f9,negative).
example(e9,f10,negative).
example(e10,f1,positive).
example(e10,f2,positive).
example(e10,f3,negative).
example(e10,f4,negative).
example(e10,f5,positive).
example(e10,f6,positive).
example(e10,f7,negative).
example(e10,f8,positive).
example(e10,f9,negative).
example(e10,f10,negative).
example(e11,f1,negative).
example(e11,f2,positive).
example(e11,f3,negative).
example(e11,f4,negative).
example(e11,f5,positive).
example(e11,f6,positive).
example(e11,f7,positive).
example(e11,f8,negative).
example(e11,f9,negative).
example(e11,f10,negative).
example(e12,f1,negative).
example(e12,f2,positive).
example(e12,f3,positive).
example(e12,f4,negative).
example(e12,f5,positive).
example(e12,f6,positive).
example(e12,f7,positive).
example(e12,f8,negative).
example(e12,f9,positive).
example(e12,f10,positive).
example(e13,f1,positive).
example(e13,f2,negative).
example(e13,f3,negative).
example(e13,f4,negative).
example(e13,f5,positive).
example(e13,f6,positive).
example(e13,f7,positive).
example(e13,f8,negative).
example(e13,f9,positive).
example(e13,f10,positive).
example(e14,f1,negative).
example(e14,f2,positive).
example(e14,f3,positive).
example(e14,f4,negative).
example(e14,f5,positive).
example(e14,f6,positive).
example(e14,f7,positive).
example(e14,f8,negative).
example(e14,f9,positive).
example(e14,f10,negative).
example(e15,f1,positive).
example(e15,f2,negative).
example(e15,f3,positive).
example(e15,f4,positive).
example(e15,f5,positive).
example(e15,f6,negative).
example(e15,f7,negative).
example(e15,f8,positive).
example(e15,f9,negative).
example(e15,f10,positive).
example(e16,f1,negative).
example(e16,f2,negative).
example(e16,f3,negative).
example(e16,f4,positive).
example(e16,f5,negative).
example(e16,f6,positive).
example(e16,f7,positive).
example(e16,f8,negative).
example(e16,f9,negative).
example(e16,f10,negative).
example(e17,f1,negative).
example(e17,f2,negative).
example(e17,f3,positive).
example(e17,f4,positive).
example(e17,f5,negative).
example(e17,f6,negative).
example(e17,f7,negative).
example(e17,f8,negative).
example(e17,f9,positive).
example(e17,f10,negative).
example(e18,f1,positive).
example(e18,f2,positive).
example(e18,f3,positive).
example(e18,f4,positive).
example(e18,f5,positive).
example(e18,f6,positive).
example(e18,f7,negative).
example(e18,f8,negative).
example(e18,f9,positive).
example(e18,f10,positive).
example(e19,f1,positive).
example(e19,f2,positive).
example(e19,f3,negative).
example(e19,f4,positive).
example(e19,f5,negative).
example(e19,f6,positive).
example(e19,f7,positive).
example(e19,f8,negative).
example(e19,f9,positive).
example(e19,f10,negative).
example(e20,f1,negative).
example(e20,f2,positive).
example(e20,f3,negative).
example(e20,f4,positive).
example(e20,f5,negative).
example(e20,f6,negative).
example(e20,f7,positive).
example(e20,f8,positive).
example(e20,f9,positive).
example(e20,f10,negative).
example(e21,f1,negative).
example(e21,f2,negative).
example(e21,f3,negative).
example(e21,f4,negative).
example(e21,f5,negative).
example(e21,f6,negative).
example(e21,f7,positive).
example(e21,f8,positive).
example(e21,f9,negative).
example(e21,f10,positive).
example(e22,f1,negative).
example(e22,f2,negative).
example(e22,f3,negative).
example(e22,f4,negative).
example(e22,f5,positive).
example(e22,f6,positive).
example(e22,f7,positive).
example(e22,f8,positive).
example(e22,f9,positive).
example(e22,f10,negative).
example(e23,f1,positive).
example(e23,f2,negative).
example(e23,f3,negative).
example(e23,f4,negative).
example(e23,f5,positive).
example(e23,f6,positive).
example(e23,f7,negative).
example(e23,f8,positive).
example(e23,f9,negative).
example(e23,f10,positive).
example(e24,f1,positive).
example(e24,f2,positive).
example(e24,f3,positive).
example(e24,f4,negative).
example(e24,f5,positive).
example(e24,f6,positive).
example(e24,f7,negative).
example(e24,f8,positive).
example(e24,f9,negative).
example(e24,f10,negative).
example(e25,f1,positive).
example(e25,f2,negative).
example(e25,f3,negative).
example(e25,f4,positive).
example(e25,f5,negative).
example(e25,f6,positive).
example(e25,f7,negative).
example(e25,f8,positive).
example(e25,f9,negative).
example(e25,f10,negative).
example(e26,f1,negative).
example(e26,f2,negative).
example(e26,f3,positive).
example(e26,f4,negative).
example(e26,f5,negative).
example(e26,f6,positive).
example(e26,f7,negative).
example(e26,f8,positive).
example(e26,f9,negative).
example(e26,f10,negative).
example(e27,f1,negative).
example(e27,f2,negative).
example(e27,f3,negative).
example(e27,f4,negative).
example(e27,f5,negative).
example(e27,f6,negative).
example(e27,f7,negative).
example(e27,f8,positive).
example(e27,f9,negative).
example(e27,f10,negative).
example(e28,f1,negative).
example(e28,f2,negative).
example(e28,f3,negative).
example(e28,f4,negative).
example(e28,f5,negative).
example(e28,f6,negative).
example(e28,f7,positive).
example(e28,f8,positive).
example(e28,f9,positive).
example(e28,f10,negative).
example(e29,f1,positive).
example(e29,f2,positive).
example(e29,f3,positive).
example(e29,f4,positive).
example(e29,f5,positive).
example(e29,f6,positive).
example(e29,f7,negative).
example(e29,f8,negative).
example(e29,f9,positive).
example(e29,f10,negative).
example(e30,f1,positive).
example(e30,f2,negative).
example(e30,f3,positive).
example(e30,f4,negative).
example(e30,f5,positive).
example(e30,f6,negative).
example(e30,f7,negative).
example(e30,f8,positive).
example(e30,f9,positive).
example(e30,f10,positive).
example(e31,f1,negative).
example(e31,f2,negative).
example(e31,f3,positive).
example(e31,f4,negative).
example(e31,f5,negative).
example(e31,f6,positive).
example(e31,f7,positive).
example(e31,f8,positive).
example(e31,f9,positive).
example(e31,f10,positive).
example(e32,f1,positive).
example(e32,f2,negative).
example(e32,f3,positive).
example(e32,f4,positive).
example(e32,f5,positive).
example(e32,f6,negative).
example(e32,f7,negative).
example(e32,f8,negative).
example(e32,f9,positive).
example(e32,f10,positive).
example(e33,f1,positive).
example(e33,f2,negative).
example(e33,f3,negative).
example(e33,f4,positive).
example(e33,f5,positive).
example(e33,f6,negative).
example(e33,f7,negative).
example(e33,f8,positive).
example(e33,f9,negative).
example(e33,f10,negative).
example(e34,f1,positive).
example(e34,f2,positive).
example(e34,f3,positive).
example(e34,f4,negative).
example(e34,f5,negative).
example(e34,f6,negative).
example(e34,f7,positive).
example(e34,f8,negative).
example(e34,f9,positive).
example(e34,f10,positive).
example(e35,f1,positive).
example(e35,f2,negative).
example(e35,f3,negative).
example(e35,f4,negative).
example(e35,f5,positive).
example(e35,f6,negative).
example(e35,f7,negative).
example(e35,f8,negative).
example(e35,f9,negative).
example(e35,f10,positive).
example(e36,f1,negative).
example(e36,f2,negative).
example(e36,f3,positive).
example(e36,f4,negative).
example(e36,f5,negative).
example(e36,f6,negative).
example(e36,f7,negative).
example(e36,f8,negative).
example(e36,f9,negative).
example(e36,f10,positive).
example(e37,f1,positive).
example(e37,f2,positive).
example(e37,f3,negative).
example(e37,f4,negative).
example(e37,f5,positive).
example(e37,f6,negative).
example(e37,f7,negative).
example(e37,f8,negative).
example(e37,f9,negative).
example(e37,f10,positive).
example(e38,f1,negative).
example(e38,f2,negative).
example(e38,f3,negative).
example(e38,f4,positive).
example(e38,f5,positive).
example(e38,f6,positive).
example(e38,f7,negative).
example(e38,f8,positive).
example(e38,f9,positive).
example(e38,f10,positive).
example(e39,f1,negative).
example(e39,f2,positive).
example(e39,f3,positive).
example(e39,f4,positive).
example(e39,f5,positive).
example(e39,f6,positive).
example(e39,f7,positive).
example(e39,f8,negative).
example(e39,f9,positive).
example(e39,f10,positive).
example(e40,f1,negative).
example(e40,f2,positive).
example(e40,f3,positive).
example(e40,f4,positive).
example(e40,f5,positive).
example(e40,f6,negative).
example(e40,f7,positive).
example(e40,f8,positive).
example(e40,f9,negative).
example(e40,f10,positive).
example(e41,f1,negative).
example(e41,f2,positive).
example(e41,f3,negative).
example(e41,f4,positive).
example(e41,f5,negative).
example(e41,f6,positive).
example(e41,f7,positive).
example(e41,f8,negative).
example(e41,f9,negative).
example(e41,f10,positive).
example(e42,f1,negative).
example(e42,f2,negative).
example(e42,f3,positive).
example(e42,f4,positive).
example(e42,f5,negative).
example(e42,f6,positive).
example(e42,f7,negative).
example(e42,f8,negative).
example(e42,f9,negative).
example(e42,f10,positive).
example(e43,f1,negative).
example(e43,f2,positive).
example(e43,f3,negative).
example(e43,f4,negative).
example(e43,f5,negative).
example(e43,f6,positive).
example(e43,f7,positive).
example(e43,f8,positive).
example(e43,f9,negative).
example(e43,f10,negative).
example(e44,f1,negative).
example(e44,f2,positive).
example(e44,f3,negative).
example(e44,f4,negative).
example(e44,f5,positive).
example(e44,f6,positive).
example(e44,f7,negative).
example(e44,f8,negative).
example(e44,f9,negative).
example(e44,f10,positive).
example(e45,f1,positive).
example(e45,f2,negative).
example(e45,f3,positive).
example(e45,f4,positive).
example(e45,f5,negative).
example(e45,f6,negative).
example(e45,f7,positive).
example(e45,f8,negative).
example(e45,f9,negative).
example(e45,f10,negative).
example(e46,f1,positive).
example(e46,f2,negative).
example(e46,f3,positive).
example(e46,f4,negative).
example(e46,f5,positive).
example(e46,f6,negative).
example(e46,f7,negative).
example(e46,f8,negative).
example(e46,f9,positive).
example(e46,f10,negative).
example(e47,f1,negative).
example(e47,f2,positive).
example(e47,f3,positive).
example(e47,f4,positive).
example(e47,f5,positive).
example(e47,f6,negative).
example(e47,f7,negative).
example(e47,f8,positive).
example(e47,f9,negative).
example(e47,f10,negative).
example(e48,f1,positive).
example(e48,f2,negative).
example(e48,f3,negative).
example(e48,f4,positive).
example(e48,f5,negative).
example(e48,f6,positive).
example(e48,f7,negative).
example(e48,f8,positive).
example(e48,f9,positive).
example(e48,f10,negative).
example(e49,f1,positive).
example(e49,f2,negative).
example(e49,f3,positive).
example(e49,f4,positive).
example(e49,f5,positive).
example(e49,f6,positive).
example(e49,f7,negative).
example(e49,f8,negative).
example(e49,f9,negative).
example(e49,f10,negative).
example(e50,f1,positive).
example(e50,f2,positive).
example(e50,f3,negative).
example(e50,f4,negative).
example(e50,f5,negative).
example(e50,f6,positive).
example(e50,f7,negative).
example(e50,f8,positive).
example(e50,f9,positive).
example(e50,f10,positive).
example(e51,f1,negative).
example(e51,f2,negative).
example(e51,f3,negative).
example(e51,f4,positive).
example(e51,f5,negative).
example(e51,f6,positive).
example(e51,f7,positive).
example(e51,f8,positive).
example(e51,f9,negative).
example(e51,f10,positive).
example(e52,f1,positive).
example(e52,f2,positive).
example(e52,f3,positive).
example(e52,f4,positive).
example(e52,f5,negative).
example(e52,f6,negative).
example(e52,f7,positive).
example(e52,f8,negative).
example(e52,f9,positive).
example(e52,f10,negative).
example(e53,f1,negative).
example(e53,f2,positive).
example(e53,f3,negative).
example(e53,f4,positive).
example(e53,f5,negative).
example(e53,f6,positive).
example(e53,f7,positive).
example(e53,f8,positive).
example(e53,f9,positive).
example(e53,f10,negative).
example(e54,f1,positive).
example(e54,f2,negative).
example(e54,f3,negative).
example(e54,f4,negative).
example(e54,f5,positive).
example(e54,f6,negative).
example(e54,f7,positive).
example(e54,f8,negative).
example(e54,f9,positive).
example(e54,f10,negative).
example(e55,f1,positive).
example(e55,f2,positive).
example(e55,f3,positive).
example(e55,f4,negative).
example(e55,f5,positive).
example(e55,f6,positive).
example(e55,f7,positive).
example(e55,f8,positive).
example(e55,f9,positive).
example(e55,f10,negative).
example(e56,f1,negative).
example(e56,f2,negative).
example(e56,f3,negative).
example(e56,f4,positive).
example(e56,f5,positive).
example(e56,f6,negative).
example(e56,f7,negative).
example(e56,f8,positive).
example(e56,f9,negative).
example(e56,f10,negative).
example(e57,f1,negative).
example(e57,f2,positive).
example(e57,f3,positive).
example(e57,f4,positive).
example(e57,f5,positive).
example(e57,f6,negative).
example(e57,f7,positive).
example(e57,f8,negative).
example(e57,f9,negative).
example(e57,f10,positive).
example(e58,f1,positive).
example(e58,f2,negative).
example(e58,f3,negative).
example(e58,f4,negative).
example(e58,f5,positive).
example(e58,f6,negative).
example(e58,f7,negative).
example(e58,f8,positive).
example(e58,f9,positive).
example(e58,f10,positive).
example(e59,f1,positive).
example(e59,f2,positive).
example(e59,f3,negative).
example(e59,f4,positive).
example(e59,f5,positive).
example(e59,f6,positive).
example(e59,f7,negative).
example(e59,f8,positive).
example(e59,f9,negative).
example(e59,f10,negative).
example(e60,f1,negative).
example(e60,f2,positive).
example(e60,f3,positive).
example(e60,f4,negative).
example(e60,f5,negative).
example(e60,f6,negative).
example(e60,f7,negative).
example(e60,f8,positive).
example(e60,f9,positive).
example(e60,f10,positive).
example(e61,f1,negative).
example(e61,f2,negative).
example(e61,f3,positive).
example(e61,f4,positive).
example(e61,f5,negative).
example(e61,f6,negative).
example(e61,f7,negative).
example(e61,f8,negative).
example(e61,f9,positive).
example(e61,f10,positive).
example(e62,f1,negative).
example(e62,f2,positive).
example(e62,f3,positive).
example(e62,f4,negative).
example(e62,f5,negative).
example(e62,f6,positive).
example(e62,f7,negative).
example(e62,f8,negative).
example(e62,f9,negative).
example(e62,f10,positive).
example(e63,f1,positive).
example(e63,f2,negative).
example(e63,f3,positive).
example(e63,f4,negative).
example(e63,f5,positive).
example(e63,f6,negative).
example(e63,f7,negative).
example(e63,f8,negative).
example(e63,f9,positive).
example(e63,f10,positive).
example(e64,f1,positive).
example(e64,f2,positive).
example(e64,f3,positive).
example(e64,f4,positive).
example(e64,f5,positive).
example(e64,f6,negative).
example(e64,f7,negative).
example(e64,f8,positive).
example(e64,f9,negative).
example(e64,f10,negative).
example(e65,f1,negative).
example(e65,f2,negative).
example(e65,f3,negative).
example(e65,f4,negative).
example(e65,f5,positive).
example(e65,f6,negative).
example(e65,f7,positive).
example(e65,f8,negative).
example(e65,f9,positive).
example(e65,f10,positive).
example(e66,f1,positive).
example(e66,f2,negative).
example(e66,f3,positive).
example(e66,f4,positive).
example(e66,f5,positive).
example(e66,f6,positive).
example(e66,f7,positive).
example(e66,f8,negative).
example(e66,f9,positive).
example(e66,f10,negative).
example(e67,f1,positive).
example(e67,f2,negative).
example(e67,f3,positive).
example(e67,f4,positive).
example(e67,f5,positive).
example(e67,f6,negative).
example(e67,f7,positive).
example(e67,f8,negative).
example(e67,f9,negative).
example(e67,f10,positive).
example(e68,f1,positive).
example(e68,f2,negative).
example(e68,f3,negative).
example(e68,f4,negative).
example(e68,f5,negative).
example(e68,f6,negative).
example(e68,f7,positive).
example(e68,f8,negative).
example(e68,f9,positive).
example(e68,f10,negative).
example(e69,f1,negative).
example(e69,f2,negative).
example(e69,f3,positive).
example(e69,f4,positive).
example(e69,f5,positive).
example(e69,f6,negative).
example(e69,f7,negative).
example(e69,f8,negative).
example(e69,f9,negative).
example(e69,f10,positive).
example(e70,f1,positive).
example(e70,f2,negative).
example(e70,f3,positive).
example(e70,f4,negative).
example(e70,f5,negative).
example(e70,f6,negative).
example(e70,f7,positive).
example(e70,f8,negative).
example(e70,f9,negative).
example(e70,f10,negative).
example(e71,f1,positive).
example(e71,f2,positive).
example(e71,f3,negative).
example(e71,f4,positive).
example(e71,f5,negative).
example(e71,f6,positive).
example(e71,f7,positive).
example(e71,f8,negative).
example(e71,f9,negative).
example(e71,f10,positive).
example(e72,f1,negative).
example(e72,f2,positive).
example(e72,f3,positive).
example(e72,f4,negative).
example(e72,f5,positive).
example(e72,f6,positive).
example(e72,f7,negative).
example(e72,f8,negative).
example(e72,f9,negative).
example(e72,f10,positive).
example(e73,f1,negative).
example(e73,f2,negative).
example(e73,f3,negative).
example(e73,f4,negative).
example(e73,f5,negative).
example(e73,f6,positive).
example(e73,f7,positive).
example(e73,f8,negative).
example(e73,f9,positive).
example(e73,f10,positive).
example(e74,f1,positive).
example(e74,f2,positive).
example(e74,f3,negative).
example(e74,f4,positive).
example(e74,f5,positive).
example(e74,f6,positive).
example(e74,f7,positive).
example(e74,f8,positive).
example(e74,f9,negative).
example(e74,f10,positive).
example(e75,f1,negative).
example(e75,f2,negative).
example(e75,f3,negative).
example(e75,f4,positive).
example(e75,f5,negative).
example(e75,f6,positive).
example(e75,f7,negative).
example(e75,f8,positive).
example(e75,f9,negative).
example(e75,f10,positive).
example(e76,f1,positive).
example(e76,f2,negative).
example(e76,f3,positive).
example(e76,f4,positive).
example(e76,f5,positive).
example(e76,f6,positive).
example(e76,f7,negative).
example(e76,f8,positive).
example(e76,f9,negative).
example(e76,f10,negative).
example(e77,f1,negative).
example(e77,f2,positive).
example(e77,f3,positive).
example(e77,f4,negative).
example(e77,f5,negative).
example(e77,f6,positive).
example(e77,f7,negative).
example(e77,f8,positive).
example(e77,f9,negative).
example(e77,f10,positive).
example(e78,f1,negative).
example(e78,f2,positive).
example(e78,f3,negative).
example(e78,f4,negative).
example(e78,f5,negative).
example(e78,f6,positive).
example(e78,f7,positive).
example(e78,f8,positive).
example(e78,f9,positive).
example(e78,f10,positive).
example(e79,f1,negative).
example(e79,f2,positive).
example(e79,f3,negative).
example(e79,f4,positive).
example(e79,f5,positive).
example(e79,f6,negative).
example(e79,f7,negative).
example(e79,f8,negative).
example(e79,f9,positive).
example(e79,f10,positive).
example(e80,f1,negative).
example(e80,f2,negative).
example(e80,f3,negative).
example(e80,f4,negative).
example(e80,f5,positive).
example(e80,f6,negative).
example(e80,f7,positive).
example(e80,f8,negative).
example(e80,f9,negative).
example(e80,f10,positive).
example(e81,f1,negative).
example(e81,f2,positive).
example(e81,f3,negative).
example(e81,f4,negative).
example(e81,f5,negative).
example(e81,f6,positive).
example(e81,f7,positive).
example(e81,f8,positive).
example(e81,f9,positive).
example(e81,f10,negative).
example(e82,f1,negative).
example(e82,f2,positive).
example(e82,f3,positive).
example(e82,f4,positive).
example(e82,f5,positive).
example(e82,f6,positive).
example(e82,f7,positive).
example(e82,f8,negative).
example(e82,f9,positive).
example(e82,f10,negative).
example(e83,f1,negative).
example(e83,f2,positive).
example(e83,f3,negative).
example(e83,f4,negative).
example(e83,f5,positive).
example(e83,f6,negative).
example(e83,f7,negative).
example(e83,f8,positive).
example(e83,f9,negative).
example(e83,f10,positive).
example(e84,f1,positive).
example(e84,f2,negative).
example(e84,f3,positive).
example(e84,f4,positive).
example(e84,f5,negative).
example(e84,f6,negative).
example(e84,f7,negative).
example(e84,f8,positive).
example(e84,f9,negative).
example(e84,f10,negative).
example(e85,f1,negative).
example(e85,f2,negative).
example(e85,f3,negative).
example(e85,f4,positive).
example(e85,f5,negative).
example(e85,f6,positive).
example(e85,f7,negative).
example(e85,f8,positive).
example(e85,f9,positive).
example(e85,f10,negative).
example(e86,f1,positive).
example(e86,f2,negative).
example(e86,f3,positive).
example(e86,f4,negative).
example(e86,f5,negative).
example(e86,f6,negative).
example(e86,f7,negative).
example(e86,f8,negative).
example(e86,f9,positive).
example(e86,f10,positive).
example(e87,f1,negative).
example(e87,f2,positive).
example(e87,f3,positive).
example(e87,f4,negative).
example(e87,f5,positive).
example(e87,f6,negative).
example(e87,f7,negative).
example(e87,f8,negative).
example(e87,f9,positive).
example(e87,f10,positive).
example(e88,f1,positive).
example(e88,f2,negative).
example(e88,f3,negative).
example(e88,f4,negative).
example(e88,f5,positive).
example(e88,f6,negative).
example(e88,f7,positive).
example(e88,f8,negative).
example(e88,f9,negative).
example(e88,f10,positive).
example(e89,f1,positive).
example(e89,f2,negative).
example(e89,f3,negative).
example(e89,f4,negative).
example(e89,f5,negative).
example(e89,f6,negative).
example(e89,f7,negative).
example(e89,f8,positive).
example(e89,f9,negative).
example(e89,f10,positive).
example(e90,f1,positive).
example(e90,f2,negative).
example(e90,f3,negative).
example(e90,f4,negative).
example(e90,f5,negative).
example(e90,f6,positive).
example(e90,f7,positive).
example(e90,f8,positive).
example(e90,f9,negative).
example(e90,f10,positive).
example(e91,f1,negative).
example(e91,f2,positive).
example(e91,f3,positive).
example(e91,f4,positive).
example(e91,f5,positive).
example(e91,f6,positive).
example(e91,f7,negative).
example(e91,f8,negative).
example(e91,f9,positive).
example(e91,f10,negative).
example(e92,f1,negative).
example(e92,f2,negative).
example(e92,f3,negative).
example(e92,f4,negative).
example(e92,f5,positive).
example(e92,f6,positive).
example(e92,f7,negative).
example(e92,f8,positive).
example(e92,f9,positive).
example(e92,f10,positive).
example(e93,f1,positive).
example(e93,f2,positive).
example(e93,f3,negative).
example(e93,f4,negative).
example(e93,f5,negative).
example(e93,f6,negative).
example(e93,f7,positive).
example(e93,f8,negative).
example(e93,f9,positive).
example(e93,f10,positive).
example(e94,f1,positive).
example(e94,f2,negative).
example(e94,f3,positive).
example(e94,f4,positive).
example(e94,f5,negative).
example(e94,f6,negative).
example(e94,f7,negative).
example(e94,f8,positive).
example(e94,f9,positive).
example(e94,f10,negative).
example(e95,f1,negative).
example(e95,f2,positive).
example(e95,f3,positive).
example(e95,f4,negative).
example(e95,f5,negative).
example(e95,f6,negative).
example(e95,f7,positive).
example(e95,f8,positive).
example(e95,f9,negative).
example(e95,f10,negative).
example(e96,f1,positive).
example(e96,f2,negative).
example(e96,f3,positive).
example(e96,f4,positive).
example(e96,f5,negative).
example(e96,f6,positive).
example(e96,f7,positive).
example(e96,f8,positive).
example(e96,f9,positive).
example(e96,f10,negative).
example(e97,f1,negative).
example(e97,f2,negative).
example(e97,f3,positive).
example(e97,f4,negative).
example(e97,f5,positive).
example(e97,f6,negative).
example(e97,f7,positive).
example(e97,f8,positive).
example(e97,f9,negative).
example(e97,f10,positive).
example(e98,f1,negative).
example(e98,f2,negative).
example(e98,f3,negative).
example(e98,f4,positive).
example(e98,f5,positive).
example(e98,f6,negative).
example(e98,f7,negative).
example(e98,f8,positive).
example(e98,f9,positive).
example(e98,f10,negative).
example(e99,f1,negative).
example(e99,f2,positive).
example(e99,f3,positive).
example(e99,f4,positive).
example(e99,f5,negative).
example(e99,f6,negative).
example(e99,f7,positive).
example(e99,f8,negative).
example(e99,f9,negative).
example(e99,f10,positive).
example(e100,f1,positive).
example(e100,f2,negative).
example(e100,f3,negative).
example(e100,f4,negative).
example(e100,f5,negative).
example(e100,f6,negative).
example(e100,f7,negative).
example(e100,f8,positive).
example(e100,f9,positive).
example(e100,f10,negative).
example(e101,f1,positive).
example(e101,f2,positive).
example(e101,f3,negative).
example(e101,f4,positive).
example(e101,f5,positive).
example(e101,f6,positive).
example(e101,f7,negative).
example(e101,f8,negative).
example(e101,f9,negative).
example(e101,f10,negative).
example(e102,f1,positive).
example(e102,f2,positive).
example(e102,f3,positive).
example(e102,f4,negative).
example(e102,f5,negative).
example(e102,f6,negative).
example(e102,f7,positive).
example(e102,f8,positive).
example(e102,f9,negative).
example(e102,f10,negative).
example(e103,f1,negative).
example(e103,f2,positive).
example(e103,f3,negative).
example(e103,f4,positive).
example(e103,f5,negative).
example(e103,f6,positive).
example(e103,f7,positive).
example(e103,f8,positive).
example(e103,f9,positive).
example(e103,f10,positive).
example(e104,f1,positive).
example(e104,f2,negative).
example(e104,f3,positive).
example(e104,f4,positive).
example(e104,f5,positive).
example(e104,f6,positive).
example(e104,f7,negative).
example(e104,f8,negative).
example(e104,f9,positive).
example(e104,f10,negative).
example(e105,f1,negative).
example(e105,f2,negative).
example(e105,f3,positive).
example(e105,f4,negative).
example(e105,f5,negative).
example(e105,f6,positive).
example(e105,f7,positive).
example(e105,f8,negative).
example(e105,f9,positive).
example(e105,f10,positive).
example(e106,f1,negative).
example(e106,f2,negative).
example(e106,f3,negative).
example(e106,f4,negative).
example(e106,f5,positive).
example(e106,f6,negative).
example(e106,f7,negative).
example(e106,f8,negative).
example(e106,f9,positive).
example(e106,f10,negative).
example(e107,f1,negative).
example(e107,f2,positive).
example(e107,f3,positive).
example(e107,f4,negative).
example(e107,f5,negative).
example(e107,f6,negative).
example(e107,f7,positive).
example(e107,f8,negative).
example(e107,f9,negative).
example(e107,f10,negative).
example(e108,f1,negative).
example(e108,f2,negative).
example(e108,f3,negative).
example(e108,f4,negative).
example(e108,f5,negative).
example(e108,f6,positive).
example(e108,f7,positive).
example(e108,f8,negative).
example(e108,f9,negative).
example(e108,f10,positive).
example(e109,f1,positive).
example(e109,f2,negative).
example(e109,f3,negative).
example(e109,f4,positive).
example(e109,f5,positive).
example(e109,f6,negative).
example(e109,f7,positive).
example(e109,f8,negative).
example(e109,f9,negative).
example(e109,f10,negative).
example(e110,f1,negative).
example(e110,f2,positive).
example(e110,f3,positive).
example(e110,f4,negative).
example(e110,f5,negative).
example(e110,f6,negative).
example(e110,f7,negative).
example(e110,f8,positive).
example(e110,f9,positive).
example(e110,f10,negative).
example(e111,f1,negative).
example(e111,f2,negative).
example(e111,f3,negative).
example(e111,f4,negative).
example(e111,f5,negative).
example(e111,f6,positive).
example(e111,f7,positive).
example(e111,f8,positive).
example(e111,f9,negative).
example(e111,f10,negative).
example(e112,f1,negative).
example(e112,f2,positive).
example(e112,f3,positive).
example(e112,f4,positive).
example(e112,f5,positive).
example(e112,f6,negative).
example(e112,f7,negative).
example(e112,f8,negative).
example(e112,f9,negative).
example(e112,f10,negative).
example(e113,f1,positive).
example(e113,f2,positive).
example(e113,f3,positive).
example(e113,f4,positive).
example(e113,f5,negative).
example(e113,f6,positive).
example(e113,f7,negative).
example(e113,f8,positive).
example(e113,f9,negative).
example(e113,f10,negative).
example(e114,f1,negative).
example(e114,f2,positive).
example(e114,f3,negative).
example(e114,f4,positive).
example(e114,f5,negative).
example(e114,f6,positive).
example(e114,f7,negative).
example(e114,f8,negative).
example(e114,f9,positive).
example(e114,f10,positive).
example(e115,f1,negative).
example(e115,f2,negative).
example(e115,f3,negative).
example(e115,f4,positive).
example(e115,f5,negative).
example(e115,f6,negative).
example(e115,f7,positive).
example(e115,f8,positive).
example(e115,f9,negative).
example(e115,f10,negative).
example(e116,f1,negative).
example(e116,f2,positive).
example(e116,f3,positive).
example(e116,f4,negative).
example(e116,f5,negative).
example(e116,f6,positive).
example(e116,f7,negative).
example(e116,f8,negative).
example(e116,f9,positive).
example(e116,f10,negative).
example(e117,f1,positive).
example(e117,f2,positive).
example(e117,f3,positive).
example(e117,f4,positive).
example(e117,f5,negative).
example(e117,f6,negative).
example(e117,f7,negative).
example(e117,f8,negative).
example(e117,f9,positive).
example(e117,f10,positive).
example(e118,f1,positive).
example(e118,f2,positive).
example(e118,f3,negative).
example(e118,f4,positive).
example(e118,f5,negative).
example(e118,f6,positive).
example(e118,f7,positive).
example(e118,f8,positive).
example(e118,f9,positive).
example(e118,f10,positive).
example(e119,f1,positive).
example(e119,f2,positive).
example(e119,f3,negative).
example(e119,f4,positive).
example(e119,f5,positive).
example(e119,f6,positive).
example(e119,f7,negative).
example(e119,f8,negative).
example(e119,f9,negative).
example(e119,f10,positive).
example(e120,f1,negative).
example(e120,f2,negative).
example(e120,f3,negative).
example(e120,f4,negative).
example(e120,f5,positive).
example(e120,f6,negative).
example(e120,f7,negative).
example(e120,f8,positive).
example(e120,f9,negative).
example(e120,f10,positive).
example(e121,f1,positive).
example(e121,f2,negative).
example(e121,f3,positive).
example(e121,f4,positive).
example(e121,f5,negative).
example(e121,f6,negative).
example(e121,f7,negative).
example(e121,f8,negative).
example(e121,f9,negative).
example(e121,f10,positive).
example(e122,f1,negative).
example(e122,f2,negative).
example(e122,f3,positive).
example(e122,f4,positive).
example(e122,f5,positive).
example(e122,f6,positive).
example(e122,f7,negative).
example(e122,f8,negative).
example(e122,f9,positive).
example(e122,f10,positive).
example(e123,f1,positive).
example(e123,f2,positive).
example(e123,f3,negative).
example(e123,f4,negative).
example(e123,f5,positive).
example(e123,f6,negative).
example(e123,f7,positive).
example(e123,f8,positive).
example(e123,f9,negative).
example(e123,f10,negative).
example(e124,f1,positive).
example(e124,f2,positive).
example(e124,f3,positive).
example(e124,f4,negative).
example(e124,f5,positive).
example(e124,f6,negative).
example(e124,f7,negative).
example(e124,f8,positive).
example(e124,f9,negative).
example(e124,f10,positive).
example(e125,f1,positive).
example(e125,f2,negative).
example(e125,f3,negative).
example(e125,f4,positive).
example(e125,f5,negative).
example(e125,f6,positive).
example(e125,f7,positive).
example(e125,f8,positive).
example(e125,f9,positive).
example(e125,f10,positive).
example(e126,f1,negative).
example(e126,f2,positive).
example(e126,f3,positive).
example(e126,f4,negative).
example(e126,f5,negative).
example(e126,f6,negative).
example(e126,f7,negative).
example(e126,f8,negative).
example(e126,f9,negative).
example(e126,f10,positive).
example(e127,f1,positive).
example(e127,f2,negative).
example(e127,f3,positive).
example(e127,f4,positive).
example(e127,f5,negative).
example(e127,f6,negative).
example(e127,f7,negative).
example(e127,f8,positive).
example(e127,f9,positive).
example(e127,f10,positive).
example(e128,f1,positive).
example(e128,f2,negative).
example(e128,f3,positive).
example(e128,f4,negative).
example(e128,f5,negative).
example(e128,f6,positive).
example(e128,f7,positive).
example(e128,f8,positive).
example(e128,f9,positive).
example(e128,f10,negative).
example(e129,f1,negative).
example(e129,f2,negative).
example(e129,f3,negative).
example(e129,f4,positive).
example(e129,f5,positive).
example(e129,f6,positive).
example(e129,f7,positive).
example(e129,f8,negative).
example(e129,f9,positive).
example(e129,f10,negative).
example(e130,f1,negative).
example(e130,f2,negative).
example(e130,f3,negative).
example(e130,f4,positive).
example(e130,f5,negative).
example(e130,f6,positive).
example(e130,f7,negative).
example(e130,f8,positive).
example(e130,f9,negative).
example(e130,f10,negative).
example(e131,f1,negative).
example(e131,f2,negative).
example(e131,f3,negative).
example(e131,f4,positive).
example(e131,f5,positive).
example(e131,f6,positive).
example(e131,f7,positive).
example(e131,f8,positive).
example(e131,f9,negative).
example(e131,f10,negative).
example(e132,f1,positive).
example(e132,f2,negative).
example(e132,f3,positive).
example(e132,f4,positive).
example(e132,f5,negative).
example(e132,f6,negative).
example(e132,f7,positive).
example(e132,f8,positive).
example(e132,f9,negative).
example(e132,f10,positive).
example(e133,f1,negative).
example(e133,f2,negative).
example(e133,f3,positive).
example(e133,f4,positive).
example(e133,f5,positive).
example(e133,f6,positive).
example(e133,f7,positive).
example(e133,f8,positive).
example(e133,f9,positive).
example(e133,f10,negative).
example(e134,f1,positive).
example(e134,f2,positive).
example(e134,f3,negative).
example(e134,f4,negative).
example(e134,f5,negative).
example(e134,f6,positive).
example(e134,f7,positive).
example(e134,f8,negative).
example(e134,f9,positive).
example(e134,f10,positive).
example(e135,f1,positive).
example(e135,f2,negative).
example(e135,f3,positive).
example(e135,f4,negative).
example(e135,f5,negative).
example(e135,f6,negative).
example(e135,f7,negative).
example(e135,f8,negative).
example(e135,f9,negative).
example(e135,f10,positive).
example(e136,f1,positive).
example(e136,f2,negative).
example(e136,f3,positive).
example(e136,f4,positive).
example(e136,f5,positive).
example(e136,f6,negative).
example(e136,f7,positive).
example(e136,f8,positive).
example(e136,f9,positive).
example(e136,f10,positive).
example(e137,f1,negative).
example(e137,f2,positive).
example(e137,f3,negative).
example(e137,f4,positive).
example(e137,f5,positive).
example(e137,f6,positive).
example(e137,f7,negative).
example(e137,f8,positive).
example(e137,f9,negative).
example(e137,f10,positive).
example(e138,f1,negative).
example(e138,f2,positive).
example(e138,f3,positive).
example(e138,f4,positive).
example(e138,f5,positive).
example(e138,f6,positive).
example(e138,f7,negative).
example(e138,f8,negative).
example(e138,f9,positive).
example(e138,f10,positive).
example(e139,f1,positive).
example(e139,f2,positive).
example(e139,f3,negative).
example(e139,f4,negative).
example(e139,f5,negative).
example(e139,f6,positive).
example(e139,f7,negative).
example(e139,f8,positive).
example(e139,f9,negative).
example(e139,f10,positive).
example(e140,f1,positive).
example(e140,f2,positive).
example(e140,f3,negative).
example(e140,f4,positive).
example(e140,f5,positive).
example(e140,f6,positive).
example(e140,f7,negative).
example(e140,f8,negative).
example(e140,f9,positive).
example(e140,f10,positive).
example(e141,f1,negative).
example(e141,f2,positive).
example(e141,f3,positive).
example(e141,f4,positive).
example(e141,f5,positive).
example(e141,f6,negative).
example(e141,f7,positive).
example(e141,f8,positive).
example(e141,f9,positive).
example(e141,f10,negative).
example(e142,f1,positive).
example(e142,f2,negative).
example(e142,f3,positive).
example(e142,f4,negative).
example(e142,f5,positive).
example(e142,f6,positive).
example(e142,f7,negative).
example(e142,f8,negative).
example(e142,f9,positive).
example(e142,f10,positive).
example(e143,f1,negative).
example(e143,f2,negative).
example(e143,f3,positive).
example(e143,f4,negative).
example(e143,f5,positive).
example(e143,f6,negative).
example(e143,f7,positive).
example(e143,f8,negative).
example(e143,f9,negative).
example(e143,f10,negative).
example(e144,f1,negative).
example(e144,f2,positive).
example(e144,f3,negative).
example(e144,f4,negative).
example(e144,f5,negative).
example(e144,f6,positive).
example(e144,f7,negative).
example(e144,f8,positive).
example(e144,f9,positive).
example(e144,f10,negative).
example(e145,f1,positive).
example(e145,f2,positive).
example(e145,f3,negative).
example(e145,f4,negative).
example(e145,f5,negative).
example(e145,f6,negative).
example(e145,f7,positive).
example(e145,f8,positive).
example(e145,f9,positive).
example(e145,f10,positive).
example(e146,f1,negative).
example(e146,f2,positive).
example(e146,f3,negative).
example(e146,f4,positive).
example(e146,f5,negative).
example(e146,f6,negative).
example(e146,f7,negative).
example(e146,f8,negative).
example(e146,f9,positive).
example(e146,f10,negative).
example(e147,f1,positive).
example(e147,f2,positive).
example(e147,f3,positive).
example(e147,f4,positive).
example(e147,f5,negative).
example(e147,f6,negative).
example(e147,f7,positive).
example(e147,f8,positive).
example(e147,f9,positive).
example(e147,f10,positive).
example(e148,f1,positive).
example(e148,f2,negative).
example(e148,f3,positive).
example(e148,f4,negative).
example(e148,f5,negative).
example(e148,f6,positive).
example(e148,f7,negative).
example(e148,f8,negative).
example(e148,f9,negative).
example(e148,f10,positive).
example(e149,f1,negative).
example(e149,f2,negative).
example(e149,f3,positive).
example(e149,f4,negative).
example(e149,f5,positive).
example(e149,f6,negative).
example(e149,f7,negative).
example(e149,f8,negative).
example(e149,f9,positive).
example(e149,f10,positive).
example(e150,f1,negative).
example(e150,f2,negative).
example(e150,f3,positive).
example(e150,f4,negative).
example(e150,f5,negative).
example(e150,f6,negative).
example(e150,f7,negative).
example(e150,f8,positive).
example(e150,f9,positive).
example(e150,f10,negative).
example(e151,f1,positive).
example(e151,f2,positive).
example(e151,f3,negative).
example(e151,f4,positive).
example(e151,f5,positive).
example(e151,f6,positive).
example(e151,f7,positive).
example(e151,f8,positive).
example(e151,f9,positive).
example(e151,f10,negative).
example(e152,f1,positive).
example(e152,f2,positive).
example(e152,f3,positive).
example(e152,f4,positive).
example(e152,f5,negative).
example(e152,f6,negative).
example(e152,f7,positive).
example(e152,f8,positive).
example(e152,f9,negative).
example(e152,f10,positive).
example(e153,f1,negative).
example(e153,f2,positive).
example(e153,f3,negative).
example(e153,f4,positive).
example(e153,f5,positive).
example(e153,f6,negative).
example(e153,f7,positive).
example(e153,f8,positive).
example(e153,f9,negative).
example(e153,f10,positive).
example(e154,f1,positive).
example(e154,f2,negative).
example(e154,f3,negative).
example(e154,f4,negative).
example(e154,f5,negative).
example(e154,f6,negative).
example(e154,f7,negative).
example(e154,f8,positive).
example(e154,f9,positive).
example(e154,f10,positive).
example(e155,f1,positive).
example(e155,f2,positive).
example(e155,f3,positive).
example(e155,f4,negative).
example(e155,f5,negative).
example(e155,f6,positive).
example(e155,f7,positive).
example(e155,f8,positive).
example(e155,f9,positive).
example(e155,f10,positive).
example(e156,f1,positive).
example(e156,f2,negative).
example(e156,f3,positive).
example(e156,f4,negative).
example(e156,f5,positive).
example(e156,f6,negative).
example(e156,f7,negative).
example(e156,f8,positive).
example(e156,f9,negative).
example(e156,f10,positive).
example(e157,f1,negative).
example(e157,f2,negative).
example(e157,f3,positive).
example(e157,f4,negative).
example(e157,f5,negative).
example(e157,f6,negative).
example(e157,f7,positive).
example(e157,f8,positive).
example(e157,f9,negative).
example(e157,f10,negative).
example(e158,f1,positive).
example(e158,f2,positive).
example(e158,f3,positive).
example(e158,f4,positive).
example(e158,f5,positive).
example(e158,f6,positive).
example(e158,f7,positive).
example(e158,f8,positive).
example(e158,f9,positive).
example(e158,f10,positive).
example(e159,f1,negative).
example(e159,f2,negative).
example(e159,f3,positive).
example(e159,f4,negative).
example(e159,f5,positive).
example(e159,f6,negative).
example(e159,f7,negative).
example(e159,f8,positive).
example(e159,f9,negative).
example(e159,f10,positive).
example(e160,f1,positive).
example(e160,f2,negative).
example(e160,f3,negative).
example(e160,f4,positive).
example(e160,f5,positive).
example(e160,f6,positive).
example(e160,f7,positive).
example(e160,f8,positive).
example(e160,f9,positive).
example(e160,f10,positive).
example(e161,f1,positive).
example(e161,f2,negative).
example(e161,f3,negative).
example(e161,f4,negative).
example(e161,f5,negative).
example(e161,f6,negative).
example(e161,f7,positive).
example(e161,f8,positive).
example(e161,f9,negative).
example(e161,f10,positive).
example(e162,f1,positive).
example(e162,f2,negative).
example(e162,f3,negative).
example(e162,f4,positive).
example(e162,f5,positive).
example(e162,f6,positive).
example(e162,f7,positive).
example(e162,f8,positive).
example(e162,f9,negative).
example(e162,f10,positive).
example(e163,f1,negative).
example(e163,f2,negative).
example(e163,f3,negative).
example(e163,f4,negative).
example(e163,f5,negative).
example(e163,f6,negative).
example(e163,f7,positive).
example(e163,f8,negative).
example(e163,f9,negative).
example(e163,f10,positive).
example(e164,f1,negative).
example(e164,f2,positive).
example(e164,f3,positive).
example(e164,f4,positive).
example(e164,f5,negative).
example(e164,f6,negative).
example(e164,f7,negative).
example(e164,f8,positive).
example(e164,f9,positive).
example(e164,f10,positive).
example(e165,f1,positive).
example(e165,f2,negative).
example(e165,f3,positive).
example(e165,f4,positive).
example(e165,f5,negative).
example(e165,f6,negative).
example(e165,f7,positive).
example(e165,f8,positive).
example(e165,f9,negative).
example(e165,f10,negative).
example(e166,f1,negative).
example(e166,f2,positive).
example(e166,f3,positive).
example(e166,f4,negative).
example(e166,f5,negative).
example(e166,f6,positive).
example(e166,f7,negative).
example(e166,f8,positive).
example(e166,f9,positive).
example(e166,f10,negative).
example(e167,f1,negative).
example(e167,f2,negative).
example(e167,f3,positive).
example(e167,f4,positive).
example(e167,f5,negative).
example(e167,f6,positive).
example(e167,f7,positive).
example(e167,f8,positive).
example(e167,f9,negative).
example(e167,f10,positive).
example(e168,f1,positive).
example(e168,f2,positive).
example(e168,f3,positive).
example(e168,f4,negative).
example(e168,f5,negative).
example(e168,f6,positive).
example(e168,f7,negative).
example(e168,f8,negative).
example(e168,f9,negative).
example(e168,f10,positive).
example(e169,f1,positive).
example(e169,f2,negative).
example(e169,f3,positive).
example(e169,f4,negative).
example(e169,f5,negative).
example(e169,f6,negative).
example(e169,f7,positive).
example(e169,f8,positive).
example(e169,f9,positive).
example(e169,f10,positive).
example(e170,f1,positive).
example(e170,f2,negative).
example(e170,f3,positive).
example(e170,f4,negative).
example(e170,f5,positive).
example(e170,f6,negative).
example(e170,f7,positive).
example(e170,f8,positive).
example(e170,f9,negative).
example(e170,f10,positive).
example(e171,f1,negative).
example(e171,f2,negative).
example(e171,f3,negative).
example(e171,f4,positive).
example(e171,f5,positive).
example(e171,f6,negative).
example(e171,f7,positive).
example(e171,f8,negative).
example(e171,f9,negative).
example(e171,f10,negative).
example(e172,f1,negative).
example(e172,f2,negative).
example(e172,f3,negative).
example(e172,f4,positive).
example(e172,f5,positive).
example(e172,f6,positive).
example(e172,f7,negative).
example(e172,f8,negative).
example(e172,f9,negative).
example(e172,f10,positive).
example(e173,f1,negative).
example(e173,f2,positive).
example(e173,f3,negative).
example(e173,f4,negative).
example(e173,f5,positive).
example(e173,f6,positive).
example(e173,f7,negative).
example(e173,f8,negative).
example(e173,f9,positive).
example(e173,f10,negative).
example(e174,f1,negative).
example(e174,f2,negative).
example(e174,f3,negative).
example(e174,f4,negative).
example(e174,f5,negative).
example(e174,f6,positive).
example(e174,f7,negative).
example(e174,f8,negative).
example(e174,f9,positive).
example(e174,f10,positive).
example(e175,f1,negative).
example(e175,f2,positive).
example(e175,f3,positive).
example(e175,f4,positive).
example(e175,f5,positive).
example(e175,f6,negative).
example(e175,f7,negative).
example(e175,f8,positive).
example(e175,f9,negative).
example(e175,f10,positive).
example(e176,f1,positive).
example(e176,f2,positive).
example(e176,f3,negative).
example(e176,f4,negative).
example(e176,f5,positive).
example(e176,f6,negative).
example(e176,f7,positive).
example(e176,f8,positive).
example(e176,f9,positive).
example(e176,f10,positive).
example(e177,f1,negative).
example(e177,f2,positive).
example(e177,f3,negative).
example(e177,f4,positive).
example(e177,f5,negative).
example(e177,f6,negative).
example(e177,f7,negative).
example(e177,f8,negative).
example(e177,f9,negative).
example(e177,f10,negative).
example(e178,f1,positive).
example(e178,f2,negative).
example(e178,f3,negative).
example(e178,f4,negative).
example(e178,f5,negative).
example(e178,f6,negative).
example(e178,f7,positive).
example(e178,f8,negative).
example(e178,f9,negative).
example(e178,f10,positive).
example(e179,f1,positive).
example(e179,f2,negative).
example(e179,f3,negative).
example(e179,f4,negative).
example(e179,f5,negative).
example(e179,f6,negative).
example(e179,f7,positive).
example(e179,f8,positive).
example(e179,f9,positive).
example(e179,f10,negative).
example(e180,f1,positive).
example(e180,f2,positive).
example(e180,f3,negative).
example(e180,f4,negative).
example(e180,f5,positive).
example(e180,f6,negative).
example(e180,f7,negative).
example(e180,f8,negative).
example(e180,f9,positive).
example(e180,f10,negative).
example(e181,f1,positive).
example(e181,f2,positive).
example(e181,f3,positive).
example(e181,f4,negative).
example(e181,f5,negative).
example(e181,f6,negative).
example(e181,f7,positive).
example(e181,f8,negative).
example(e181,f9,negative).
example(e181,f10,negative).
example(e182,f1,positive).
example(e182,f2,negative).
example(e182,f3,positive).
example(e182,f4,positive).
example(e182,f5,negative).
example(e182,f6,positive).
example(e182,f7,negative).
example(e182,f8,negative).
example(e182,f9,negative).
example(e182,f10,positive).
example(e183,f1,positive).
example(e183,f2,negative).
example(e183,f3,negative).
example(e183,f4,positive).
example(e183,f5,negative).
example(e183,f6,positive).
example(e183,f7,negative).
example(e183,f8,negative).
example(e183,f9,negative).
example(e183,f10,negative).
example(e184,f1,negative).
example(e184,f2,negative).
example(e184,f3,negative).
example(e184,f4,positive).
example(e184,f5,positive).
example(e184,f6,negative).
example(e184,f7,positive).
example(e184,f8,positive).
example(e184,f9,positive).
example(e184,f10,positive).
example(e185,f1,negative).
example(e185,f2,negative).
example(e185,f3,negative).
example(e185,f4,negative).
example(e185,f5,negative).
example(e185,f6,positive).
example(e185,f7,negative).
example(e185,f8,negative).
example(e185,f9,negative).
example(e185,f10,positive).
example(e186,f1,negative).
example(e186,f2,positive).
example(e186,f3,positive).
example(e186,f4,negative).
example(e186,f5,negative).
example(e186,f6,positive).
example(e186,f7,positive).
example(e186,f8,negative).
example(e186,f9,negative).
example(e186,f10,positive).
example(e187,f1,negative).
example(e187,f2,positive).
example(e187,f3,positive).
example(e187,f4,positive).
example(e187,f5,negative).
example(e187,f6,positive).
example(e187,f7,negative).
example(e187,f8,negative).
example(e187,f9,positive).
example(e187,f10,negative).
example(e188,f1,negative).
example(e188,f2,negative).
example(e188,f3,negative).
example(e188,f4,positive).
example(e188,f5,negative).
example(e188,f6,positive).
example(e188,f7,positive).
example(e188,f8,positive).
example(e188,f9,positive).
example(e188,f10,positive).
example(e189,f1,negative).
example(e189,f2,positive).
example(e189,f3,positive).
example(e189,f4,negative).
example(e189,f5,negative).
example(e189,f6,negative).
example(e189,f7,negative).
example(e189,f8,negative).
example(e189,f9,positive).
example(e189,f10,positive).
example(e190,f1,positive).
example(e190,f2,positive).
example(e190,f3,negative).
example(e190,f4,negative).
example(e190,f5,positive).
example(e190,f6,positive).
example(e190,f7,positive).
example(e190,f8,negative).
example(e190,f9,negative).
example(e190,f10,negative).
example(e191,f1,negative).
example(e191,f2,negative).
example(e191,f3,positive).
example(e191,f4,negative).
example(e191,f5,positive).
example(e191,f6,negative).
example(e191,f7,positive).
example(e191,f8,positive).
example(e191,f9,positive).
example(e191,f10,positive).
example(e192,f1,negative).
example(e192,f2,negative).
example(e192,f3,positive).
example(e192,f4,positive).
example(e192,f5,negative).
example(e192,f6,positive).
example(e192,f7,negative).
example(e192,f8,positive).
example(e192,f9,negative).
example(e192,f10,positive).
example(e193,f1,negative).
example(e193,f2,negative).
example(e193,f3,negative).
example(e193,f4,positive).
example(e193,f5,positive).
example(e193,f6,positive).
example(e193,f7,negative).
example(e193,f8,negative).
example(e193,f9,negative).
example(e193,f10,negative).
example(e194,f1,positive).
example(e194,f2,positive).
example(e194,f3,positive).
example(e194,f4,positive).
example(e194,f5,negative).
example(e194,f6,negative).
example(e194,f7,positive).
example(e194,f8,positive).
example(e194,f9,negative).
example(e194,f10,negative).
example(e195,f1,positive).
example(e195,f2,positive).
example(e195,f3,positive).
example(e195,f4,negative).
example(e195,f5,positive).
example(e195,f6,negative).
example(e195,f7,positive).
example(e195,f8,positive).
example(e195,f9,positive).
example(e195,f10,negative).
example(e196,f1,positive).
example(e196,f2,negative).
example(e196,f3,negative).
example(e196,f4,negative).
example(e196,f5,positive).
example(e196,f6,positive).
example(e196,f7,positive).
example(e196,f8,negative).
example(e196,f9,negative).
example(e196,f10,negative).
example(e197,f1,positive).
example(e197,f2,positive).
example(e197,f3,negative).
example(e197,f4,positive).
example(e197,f5,positive).
example(e197,f6,negative).
example(e197,f7,negative).
example(e197,f8,positive).
example(e197,f9,negative).
example(e197,f10,positive).
example(e198,f1,negative).
example(e198,f2,negative).
example(e198,f3,positive).
example(e198,f4,negative).
example(e198,f5,negative).
example(e198,f6,negative).
example(e198,f7,negative).
example(e198,f8,positive).
example(e198,f9,positive).
example(e198,f10,positive).
example(e199,f1,positive).
example(e199,f2,positive).
example(e199,f3,positive).
example(e199,f4,negative).
example(e199,f5,negative).
example(e199,f6,positive).
example(e199,f7,positive).
example(e199,f8,positive).
example(e199,f9,negative).
example(e199,f10,negative).
example(e200,f1,negative).
example(e200,f2,negative).
example(e200,f3,positive).
example(e200,f4,positive).
example(e200,f5,positive).
example(e200,f6,negative).
example(e200,f7,negative).
example(e200,f8,positive).
example(e200,f9,positive).
example(e200,f10,negative).
example(e201,f1,positive).
example(e201,f2,positive).
example(e201,f3,negative).
example(e201,f4,negative).
example(e201,f5,negative).
example(e201,f6,positive).
example(e201,f7,positive).
example(e201,f8,negative).
example(e201,f9,negative).
example(e201,f10,negative).
example(e202,f1,positive).
example(e202,f2,negative).
example(e202,f3,negative).
example(e202,f4,positive).
example(e202,f5,negative).
example(e202,f6,positive).
example(e202,f7,positive).
example(e202,f8,negative).
example(e202,f9,negative).
example(e202,f10,negative).
example(e203,f1,negative).
example(e203,f2,negative).
example(e203,f3,positive).
example(e203,f4,positive).
example(e203,f5,negative).
example(e203,f6,negative).
example(e203,f7,positive).
example(e203,f8,negative).
example(e203,f9,positive).
example(e203,f10,positive).
example(e204,f1,positive).
example(e204,f2,negative).
example(e204,f3,negative).
example(e204,f4,negative).
example(e204,f5,negative).
example(e204,f6,positive).
example(e204,f7,positive).
example(e204,f8,positive).
example(e204,f9,positive).
example(e204,f10,negative).
example(e205,f1,positive).
example(e205,f2,negative).
example(e205,f3,negative).
example(e205,f4,positive).
example(e205,f5,positive).
example(e205,f6,positive).
example(e205,f7,positive).
example(e205,f8,negative).
example(e205,f9,positive).
example(e205,f10,negative).
example(e206,f1,negative).
example(e206,f2,positive).
example(e206,f3,positive).
example(e206,f4,positive).
example(e206,f5,positive).
example(e206,f6,negative).
example(e206,f7,positive).
example(e206,f8,positive).
example(e206,f9,negative).
example(e206,f10,negative).
example(e207,f1,negative).
example(e207,f2,negative).
example(e207,f3,positive).
example(e207,f4,positive).
example(e207,f5,negative).
example(e207,f6,negative).
example(e207,f7,positive).
example(e207,f8,negative).
example(e207,f9,negative).
example(e207,f10,negative).
example(e208,f1,positive).
example(e208,f2,positive).
example(e208,f3,positive).
example(e208,f4,positive).
example(e208,f5,positive).
example(e208,f6,negative).
example(e208,f7,negative).
example(e208,f8,negative).
example(e208,f9,negative).
example(e208,f10,positive).
example(e209,f1,negative).
example(e209,f2,positive).
example(e209,f3,positive).
example(e209,f4,negative).
example(e209,f5,negative).
example(e209,f6,positive).
example(e209,f7,negative).
example(e209,f8,positive).
example(e209,f9,positive).
example(e209,f10,positive).
example(e210,f1,negative).
example(e210,f2,negative).
example(e210,f3,negative).
example(e210,f4,positive).
example(e210,f5,negative).
example(e210,f6,positive).
example(e210,f7,negative).
example(e210,f8,negative).
example(e210,f9,positive).
example(e210,f10,positive).
example(e211,f1,positive).
example(e211,f2,positive).
example(e211,f3,positive).
example(e211,f4,positive).
example(e211,f5,positive).
example(e211,f6,negative).
example(e211,f7,positive).
example(e211,f8,positive).
example(e211,f9,positive).
example(e211,f10,positive).
example(e212,f1,positive).
example(e212,f2,positive).
example(e212,f3,negative).
example(e212,f4,positive).
example(e212,f5,negative).
example(e212,f6,negative).
example(e212,f7,positive).
example(e212,f8,positive).
example(e212,f9,positive).
example(e212,f10,negative).
example(e213,f1,negative).
example(e213,f2,negative).
example(e213,f3,negative).
example(e213,f4,negative).
example(e213,f5,negative).
example(e213,f6,positive).
example(e213,f7,negative).
example(e213,f8,positive).
example(e213,f9,negative).
example(e213,f10,negative).
example(e214,f1,positive).
example(e214,f2,negative).
example(e214,f3,positive).
example(e214,f4,positive).
example(e214,f5,positive).
example(e214,f6,negative).
example(e214,f7,negative).
example(e214,f8,negative).
example(e214,f9,positive).
example(e214,f10,negative).
example(e215,f1,positive).
example(e215,f2,positive).
example(e215,f3,positive).
example(e215,f4,negative).
example(e215,f5,positive).
example(e215,f6,negative).
example(e215,f7,positive).
example(e215,f8,positive).
example(e215,f9,positive).
example(e215,f10,positive).
example(e216,f1,positive).
example(e216,f2,negative).
example(e216,f3,positive).
example(e216,f4,negative).
example(e216,f5,positive).
example(e216,f6,positive).
example(e216,f7,positive).
example(e216,f8,negative).
example(e216,f9,negative).
example(e216,f10,negative).
example(e217,f1,positive).
example(e217,f2,negative).
example(e217,f3,positive).
example(e217,f4,negative).
example(e217,f5,negative).
example(e217,f6,positive).
example(e217,f7,negative).
example(e217,f8,positive).
example(e217,f9,negative).
example(e217,f10,negative).
example(e218,f1,positive).
example(e218,f2,negative).
example(e218,f3,negative).
example(e218,f4,positive).
example(e218,f5,positive).
example(e218,f6,positive).
example(e218,f7,positive).
example(e218,f8,negative).
example(e218,f9,positive).
example(e218,f10,positive).
example(e219,f1,positive).
example(e219,f2,negative).
example(e219,f3,positive).
example(e219,f4,negative).
example(e219,f5,negative).
example(e219,f6,negative).
example(e219,f7,positive).
example(e219,f8,negative).
example(e219,f9,positive).
example(e219,f10,positive).
example(e220,f1,positive).
example(e220,f2,negative).
example(e220,f3,negative).
example(e220,f4,negative).
example(e220,f5,positive).
example(e220,f6,negative).
example(e220,f7,negative).
example(e220,f8,negative).
example(e220,f9,positive).
example(e220,f10,negative).
example(e221,f1,negative).
example(e221,f2,negative).
example(e221,f3,negative).
example(e221,f4,positive).
example(e221,f5,positive).
example(e221,f6,negative).
example(e221,f7,negative).
example(e221,f8,negative).
example(e221,f9,negative).
example(e221,f10,negative).
example(e222,f1,positive).
example(e222,f2,negative).
example(e222,f3,negative).
example(e222,f4,negative).
example(e222,f5,negative).
example(e222,f6,positive).
example(e222,f7,negative).
example(e222,f8,negative).
example(e222,f9,negative).
example(e222,f10,negative).
example(e223,f1,negative).
example(e223,f2,negative).
example(e223,f3,positive).
example(e223,f4,negative).
example(e223,f5,negative).
example(e223,f6,negative).
example(e223,f7,negative).
example(e223,f8,positive).
example(e223,f9,negative).
example(e223,f10,negative).
example(e224,f1,negative).
example(e224,f2,negative).
example(e224,f3,positive).
example(e224,f4,negative).
example(e224,f5,positive).
example(e224,f6,positive).
example(e224,f7,negative).
example(e224,f8,positive).
example(e224,f9,positive).
example(e224,f10,negative).
example(e225,f1,negative).
example(e225,f2,negative).
example(e225,f3,positive).
example(e225,f4,positive).
example(e225,f5,negative).
example(e225,f6,positive).
example(e225,f7,positive).
example(e225,f8,negative).
example(e225,f9,negative).
example(e225,f10,negative).
example(e226,f1,positive).
example(e226,f2,negative).
example(e226,f3,negative).
example(e226,f4,positive).
example(e226,f5,negative).
example(e226,f6,positive).
example(e226,f7,positive).
example(e226,f8,negative).
example(e226,f9,positive).
example(e226,f10,negative).
example(e227,f1,negative).
example(e227,f2,positive).
example(e227,f3,negative).
example(e227,f4,positive).
example(e227,f5,positive).
example(e227,f6,negative).
example(e227,f7,positive).
example(e227,f8,negative).
example(e227,f9,positive).
example(e227,f10,negative).
example(e228,f1,negative).
example(e228,f2,positive).
example(e228,f3,positive).
example(e228,f4,positive).
example(e228,f5,positive).
example(e228,f6,positive).
example(e228,f7,positive).
example(e228,f8,negative).
example(e228,f9,negative).
example(e228,f10,negative).
example(e229,f1,negative).
example(e229,f2,positive).
example(e229,f3,positive).
example(e229,f4,negative).
example(e229,f5,positive).
example(e229,f6,negative).
example(e229,f7,positive).
example(e229,f8,negative).
example(e229,f9,negative).
example(e229,f10,positive).
example(e230,f1,negative).
example(e230,f2,negative).
example(e230,f3,positive).
example(e230,f4,positive).
example(e230,f5,negative).
example(e230,f6,negative).
example(e230,f7,negative).
example(e230,f8,positive).
example(e230,f9,positive).
example(e230,f10,negative).
example(e231,f1,negative).
example(e231,f2,positive).
example(e231,f3,positive).
example(e231,f4,positive).
example(e231,f5,positive).
example(e231,f6,positive).
example(e231,f7,negative).
example(e231,f8,positive).
example(e231,f9,positive).
example(e231,f10,positive).
example(e232,f1,negative).
example(e232,f2,negative).
example(e232,f3,positive).
example(e232,f4,negative).
example(e232,f5,positive).
example(e232,f6,negative).
example(e232,f7,negative).
example(e232,f8,positive).
example(e232,f9,positive).
example(e232,f10,positive).
example(e233,f1,negative).
example(e233,f2,negative).
example(e233,f3,positive).
example(e233,f4,positive).
example(e233,f5,positive).
example(e233,f6,negative).
example(e233,f7,positive).
example(e233,f8,negative).
example(e233,f9,negative).
example(e233,f10,negative).
example(e234,f1,negative).
example(e234,f2,positive).
example(e234,f3,positive).
example(e234,f4,positive).
example(e234,f5,negative).
example(e234,f6,positive).
example(e234,f7,positive).
example(e234,f8,negative).
example(e234,f9,positive).
example(e234,f10,negative).
example(e235,f1,positive).
example(e235,f2,negative).
example(e235,f3,negative).
example(e235,f4,negative).
example(e235,f5,negative).
example(e235,f6,positive).
example(e235,f7,negative).
example(e235,f8,negative).
example(e235,f9,negative).
example(e235,f10,positive).
example(e236,f1,positive).
example(e236,f2,positive).
example(e236,f3,negative).
example(e236,f4,positive).
example(e236,f5,negative).
example(e236,f6,negative).
example(e236,f7,positive).
example(e236,f8,positive).
example(e236,f9,negative).
example(e236,f10,positive).
example(e237,f1,negative).
example(e237,f2,negative).
example(e237,f3,positive).
example(e237,f4,positive).
example(e237,f5,positive).
example(e237,f6,negative).
example(e237,f7,negative).
example(e237,f8,positive).
example(e237,f9,negative).
example(e237,f10,negative).
example(e238,f1,negative).
example(e238,f2,positive).
example(e238,f3,negative).
example(e238,f4,negative).
example(e238,f5,negative).
example(e238,f6,negative).
example(e238,f7,positive).
example(e238,f8,negative).
example(e238,f9,negative).
example(e238,f10,negative).
example(e239,f1,positive).
example(e239,f2,positive).
example(e239,f3,negative).
example(e239,f4,negative).
example(e239,f5,positive).
example(e239,f6,positive).
example(e239,f7,positive).
example(e239,f8,positive).
example(e239,f9,positive).
example(e239,f10,positive).
example(e240,f1,negative).
example(e240,f2,negative).
example(e240,f3,positive).
example(e240,f4,negative).
example(e240,f5,positive).
example(e240,f6,positive).
example(e240,f7,positive).
example(e240,f8,negative).
example(e240,f9,positive).
example(e240,f10,negative).
example(e241,f1,negative).
example(e241,f2,negative).
example(e241,f3,negative).
example(e241,f4,negative).
example(e241,f5,positive).
example(e241,f6,negative).
example(e241,f7,negative).
example(e241,f8,positive).
example(e241,f9,positive).
example(e241,f10,negative).
example(e242,f1,positive).
example(e242,f2,positive).
example(e242,f3,negative).
example(e242,f4,positive).
example(e242,f5,positive).
example(e242,f6,positive).
example(e242,f7,positive).
example(e242,f8,negative).
example(e242,f9,negative).
example(e242,f10,negative).
example(e243,f1,positive).
example(e243,f2,negative).
example(e243,f3,positive).
example(e243,f4,negative).
example(e243,f5,positive).
example(e243,f6,positive).
example(e243,f7,negative).
example(e243,f8,positive).
example(e243,f9,negative).
example(e243,f10,negative).
example(e244,f1,negative).
example(e244,f2,positive).
example(e244,f3,negative).
example(e244,f4,positive).
example(e244,f5,positive).
example(e244,f6,positive).
example(e244,f7,positive).
example(e244,f8,negative).
example(e244,f9,positive).
example(e244,f10,positive).
example(e245,f1,negative).
example(e245,f2,negative).
example(e245,f3,negative).
example(e245,f4,positive).
example(e245,f5,negative).
example(e245,f6,negative).
example(e245,f7,positive).
example(e245,f8,negative).
example(e245,f9,negative).
example(e245,f10,positive).
example(e246,f1,negative).
example(e246,f2,positive).
example(e246,f3,positive).
example(e246,f4,positive).
example(e246,f5,positive).
example(e246,f6,positive).
example(e246,f7,negative).
example(e246,f8,negative).
example(e246,f9,negative).
example(e246,f10,negative).
example(e247,f1,negative).
example(e247,f2,positive).
example(e247,f3,negative).
example(e247,f4,negative).
example(e247,f5,negative).
example(e247,f6,positive).
example(e247,f7,negative).
example(e247,f8,positive).
example(e247,f9,negative).
example(e247,f10,positive).
example(e248,f1,negative).
example(e248,f2,negative).
example(e248,f3,positive).
example(e248,f4,positive).
example(e248,f5,negative).
example(e248,f6,positive).
example(e248,f7,positive).
example(e248,f8,positive).
example(e248,f9,negative).
example(e248,f10,negative).
example(e249,f1,positive).
example(e249,f2,negative).
example(e249,f3,negative).
example(e249,f4,negative).
example(e249,f5,positive).
example(e249,f6,negative).
example(e249,f7,positive).
example(e249,f8,positive).
example(e249,f9,negative).
example(e249,f10,negative).
example(e250,f1,negative).
example(e250,f2,negative).
example(e250,f3,negative).
example(e250,f4,negative).
example(e250,f5,negative).
example(e250,f6,negative).
example(e250,f7,positive).
example(e250,f8,positive).
example(e250,f9,positive).
example(e250,f10,positive).
example(e251,f1,positive).
example(e251,f2,positive).
example(e251,f3,positive).
example(e251,f4,negative).
example(e251,f5,negative).
example(e251,f6,negative).
example(e251,f7,negative).
example(e251,f8,positive).
example(e251,f9,positive).
example(e251,f10,positive).
example(e252,f1,positive).
example(e252,f2,positive).
example(e252,f3,negative).
example(e252,f4,negative).
example(e252,f5,negative).
example(e252,f6,positive).
example(e252,f7,negative).
example(e252,f8,negative).
example(e252,f9,negative).
example(e252,f10,negative).
example(e253,f1,negative).
example(e253,f2,positive).
example(e253,f3,positive).
example(e253,f4,negative).
example(e253,f5,negative).
example(e253,f6,negative).
example(e253,f7,negative).
example(e253,f8,positive).
example(e253,f9,negative).
example(e253,f10,negative).
example(e254,f1,negative).
example(e254,f2,positive).
example(e254,f3,negative).
example(e254,f4,positive).
example(e254,f5,negative).
example(e254,f6,positive).
example(e254,f7,negative).
example(e254,f8,negative).
example(e254,f9,negative).
example(e254,f10,negative).
example(e255,f1,negative).
example(e255,f2,positive).
example(e255,f3,positive).
example(e255,f4,positive).
example(e255,f5,negative).
example(e255,f6,positive).
example(e255,f7,negative).
example(e255,f8,negative).
example(e255,f9,negative).
example(e255,f10,negative).
example(e256,f1,negative).
example(e256,f2,negative).
example(e256,f3,positive).
example(e256,f4,positive).
example(e256,f5,positive).
example(e256,f6,negative).
example(e256,f7,positive).
example(e256,f8,negative).
example(e256,f9,positive).
example(e256,f10,positive).
example(e257,f1,positive).
example(e257,f2,positive).
example(e257,f3,positive).
example(e257,f4,negative).
example(e257,f5,negative).
example(e257,f6,positive).
example(e257,f7,positive).
example(e257,f8,negative).
example(e257,f9,negative).
example(e257,f10,positive).
example(e258,f1,positive).
example(e258,f2,positive).
example(e258,f3,negative).
example(e258,f4,negative).
example(e258,f5,positive).
example(e258,f6,positive).
example(e258,f7,positive).
example(e258,f8,positive).
example(e258,f9,negative).
example(e258,f10,positive).
example(e259,f1,negative).
example(e259,f2,negative).
example(e259,f3,positive).
example(e259,f4,negative).
example(e259,f5,positive).
example(e259,f6,negative).
example(e259,f7,negative).
example(e259,f8,negative).
example(e259,f9,negative).
example(e259,f10,negative).
example(e260,f1,positive).
example(e260,f2,negative).
example(e260,f3,positive).
example(e260,f4,positive).
example(e260,f5,positive).
example(e260,f6,positive).
example(e260,f7,positive).
example(e260,f8,negative).
example(e260,f9,negative).
example(e260,f10,positive).
example(e261,f1,positive).
example(e261,f2,negative).
example(e261,f3,negative).
example(e261,f4,negative).
example(e261,f5,negative).
example(e261,f6,positive).
example(e261,f7,negative).
example(e261,f8,negative).
example(e261,f9,positive).
example(e261,f10,negative).
example(e262,f1,positive).
example(e262,f2,negative).
example(e262,f3,negative).
example(e262,f4,negative).
example(e262,f5,negative).
example(e262,f6,negative).
example(e262,f7,negative).
example(e262,f8,negative).
example(e262,f9,negative).
example(e262,f10,positive).
example(e263,f1,positive).
example(e263,f2,positive).
example(e263,f3,negative).
example(e263,f4,positive).
example(e263,f5,negative).
example(e263,f6,negative).
example(e263,f7,negative).
example(e263,f8,negative).
example(e263,f9,positive).
example(e263,f10,positive).
example(e264,f1,negative).
example(e264,f2,negative).
example(e264,f3,positive).
example(e264,f4,negative).
example(e264,f5,positive).
example(e264,f6,positive).
example(e264,f7,negative).
example(e264,f8,negative).
example(e264,f9,negative).
example(e264,f10,positive).
example(e265,f1,positive).
example(e265,f2,negative).
example(e265,f3,negative).
example(e265,f4,negative).
example(e265,f5,negative).
example(e265,f6,positive).
example(e265,f7,positive).
example(e265,f8,negative).
example(e265,f9,positive).
example(e265,f10,negative).
example(e266,f1,negative).
example(e266,f2,positive).
example(e266,f3,negative).
example(e266,f4,positive).
example(e266,f5,negative).
example(e266,f6,negative).
example(e266,f7,negative).
example(e266,f8,positive).
example(e266,f9,negative).
example(e266,f10,negative).
example(e267,f1,negative).
example(e267,f2,negative).
example(e267,f3,positive).
example(e267,f4,positive).
example(e267,f5,positive).
example(e267,f6,positive).
example(e267,f7,negative).
example(e267,f8,negative).
example(e267,f9,negative).
example(e267,f10,positive).
example(e268,f1,negative).
example(e268,f2,positive).
example(e268,f3,positive).
example(e268,f4,positive).
example(e268,f5,positive).
example(e268,f6,positive).
example(e268,f7,negative).
example(e268,f8,positive).
example(e268,f9,negative).
example(e268,f10,positive).
example(e269,f1,positive).
example(e269,f2,positive).
example(e269,f3,positive).
example(e269,f4,negative).
example(e269,f5,positive).
example(e269,f6,negative).
example(e269,f7,positive).
example(e269,f8,negative).
example(e269,f9,positive).
example(e269,f10,negative).
example(e270,f1,positive).
example(e270,f2,negative).
example(e270,f3,negative).
example(e270,f4,positive).
example(e270,f5,negative).
example(e270,f6,negative).
example(e270,f7,negative).
example(e270,f8,positive).
example(e270,f9,positive).
example(e270,f10,negative).
example(e271,f1,negative).
example(e271,f2,positive).
example(e271,f3,positive).
example(e271,f4,negative).
example(e271,f5,positive).
example(e271,f6,positive).
example(e271,f7,positive).
example(e271,f8,positive).
example(e271,f9,positive).
example(e271,f10,positive).
example(e272,f1,positive).
example(e272,f2,negative).
example(e272,f3,negative).
example(e272,f4,negative).
example(e272,f5,positive).
example(e272,f6,positive).
example(e272,f7,positive).
example(e272,f8,negative).
example(e272,f9,negative).
example(e272,f10,positive).
example(e273,f1,positive).
example(e273,f2,negative).
example(e273,f3,positive).
example(e273,f4,positive).
example(e273,f5,positive).
example(e273,f6,positive).
example(e273,f7,positive).
example(e273,f8,negative).
example(e273,f9,positive).
example(e273,f10,positive).
example(e274,f1,negative).
example(e274,f2,positive).
example(e274,f3,positive).
example(e274,f4,negative).
example(e274,f5,negative).
example(e274,f6,negative).
example(e274,f7,positive).
example(e274,f8,negative).
example(e274,f9,positive).
example(e274,f10,negative).
example(e275,f1,positive).
example(e275,f2,negative).
example(e275,f3,negative).
example(e275,f4,negative).
example(e275,f5,positive).
example(e275,f6,negative).
example(e275,f7,positive).
example(e275,f8,positive).
example(e275,f9,positive).
example(e275,f10,negative).
example(e276,f1,positive).
example(e276,f2,negative).
example(e276,f3,negative).
example(e276,f4,positive).
example(e276,f5,positive).
example(e276,f6,positive).
example(e276,f7,negative).
example(e276,f8,positive).
example(e276,f9,negative).
example(e276,f10,positive).
example(e277,f1,negative).
example(e277,f2,positive).
example(e277,f3,positive).
example(e277,f4,positive).
example(e277,f5,negative).
example(e277,f6,positive).
example(e277,f7,positive).
example(e277,f8,positive).
example(e277,f9,positive).
example(e277,f10,negative).
example(e278,f1,negative).
example(e278,f2,negative).
example(e278,f3,positive).
example(e278,f4,negative).
example(e278,f5,positive).
example(e278,f6,negative).
example(e278,f7,positive).
example(e278,f8,negative).
example(e278,f9,positive).
example(e278,f10,negative).
example(e279,f1,negative).
example(e279,f2,negative).
example(e279,f3,positive).
example(e279,f4,positive).
example(e279,f5,positive).
example(e279,f6,positive).
example(e279,f7,positive).
example(e279,f8,negative).
example(e279,f9,negative).
example(e279,f10,positive).
example(e280,f1,positive).
example(e280,f2,positive).
example(e280,f3,positive).
example(e280,f4,negative).
example(e280,f5,positive).
example(e280,f6,positive).
example(e280,f7,negative).
example(e280,f8,negative).
example(e280,f9,positive).
example(e280,f10,negative).
example(e281,f1,positive).
example(e281,f2,positive).
example(e281,f3,positive).
example(e281,f4,negative).
example(e281,f5,positive).
example(e281,f6,positive).
example(e281,f7,positive).
example(e281,f8,negative).
example(e281,f9,positive).
example(e281,f10,negative).
example(e282,f1,negative).
example(e282,f2,negative).
example(e282,f3,positive).
example(e282,f4,negative).
example(e282,f5,positive).
example(e282,f6,negative).
example(e282,f7,negative).
example(e282,f8,negative).
example(e282,f9,positive).
example(e282,f10,negative).
example(e283,f1,negative).
example(e283,f2,negative).
example(e283,f3,negative).
example(e283,f4,negative).
example(e283,f5,positive).
example(e283,f6,positive).
example(e283,f7,negative).
example(e283,f8,negative).
example(e283,f9,negative).
example(e283,f10,positive).
example(e284,f1,positive).
example(e284,f2,negative).
example(e284,f3,negative).
example(e284,f4,negative).
example(e284,f5,positive).
example(e284,f6,positive).
example(e284,f7,negative).
example(e284,f8,positive).
example(e284,f9,negative).
example(e284,f10,negative).
example(e285,f1,negative).
example(e285,f2,negative).
example(e285,f3,positive).
example(e285,f4,negative).
example(e285,f5,positive).
example(e285,f6,positive).
example(e285,f7,negative).
example(e285,f8,positive).
example(e285,f9,negative).
example(e285,f10,negative).
example(e286,f1,negative).
example(e286,f2,positive).
example(e286,f3,negative).
example(e286,f4,positive).
example(e286,f5,positive).
example(e286,f6,negative).
example(e286,f7,positive).
example(e286,f8,negative).
example(e286,f9,positive).
example(e286,f10,positive).
example(e287,f1,positive).
example(e287,f2,positive).
example(e287,f3,positive).
example(e287,f4,positive).
example(e287,f5,positive).
example(e287,f6,positive).
example(e287,f7,negative).
example(e287,f8,negative).
example(e287,f9,negative).
example(e287,f10,positive).
example(e288,f1,negative).
example(e288,f2,positive).
example(e288,f3,negative).
example(e288,f4,positive).
example(e288,f5,negative).
example(e288,f6,positive).
example(e288,f7,positive).
example(e288,f8,negative).
example(e288,f9,positive).
example(e288,f10,negative).
example(e289,f1,negative).
example(e289,f2,positive).
example(e289,f3,negative).
example(e289,f4,positive).
example(e289,f5,negative).
example(e289,f6,negative).
example(e289,f7,positive).
example(e289,f8,negative).
example(e289,f9,positive).
example(e289,f10,negative).
example(e290,f1,positive).
example(e290,f2,positive).
example(e290,f3,positive).
example(e290,f4,positive).
example(e290,f5,positive).
example(e290,f6,negative).
example(e290,f7,negative).
example(e290,f8,negative).
example(e290,f9,positive).
example(e290,f10,negative).
example(e291,f1,negative).
example(e291,f2,positive).
example(e291,f3,negative).
example(e291,f4,positive).
example(e291,f5,negative).
example(e291,f6,negative).
example(e291,f7,positive).
example(e291,f8,positive).
example(e291,f9,positive).
example(e291,f10,positive).
example(e292,f1,positive).
example(e292,f2,positive).
example(e292,f3,positive).
example(e292,f4,positive).
example(e292,f5,positive).
example(e292,f6,positive).
example(e292,f7,negative).
example(e292,f8,negative).
example(e292,f9,negative).
example(e292,f10,negative).
example(e293,f1,positive).
example(e293,f2,positive).
example(e293,f3,negative).
example(e293,f4,negative).
example(e293,f5,positive).
example(e293,f6,negative).
example(e293,f7,negative).
example(e293,f8,positive).
example(e293,f9,negative).
example(e293,f10,negative).
example(e294,f1,negative).
example(e294,f2,positive).
example(e294,f3,negative).
example(e294,f4,positive).
example(e294,f5,positive).
example(e294,f6,positive).
example(e294,f7,negative).
example(e294,f8,positive).
example(e294,f9,positive).
example(e294,f10,negative).
example(e295,f1,negative).
example(e295,f2,positive).
example(e295,f3,positive).
example(e295,f4,negative).
example(e295,f5,positive).
example(e295,f6,positive).
example(e295,f7,negative).
example(e295,f8,positive).
example(e295,f9,negative).
example(e295,f10,negative).
example(e296,f1,positive).
example(e296,f2,positive).
example(e296,f3,negative).
example(e296,f4,negative).
example(e296,f5,positive).
example(e296,f6,positive).
example(e296,f7,positive).
example(e296,f8,negative).
example(e296,f9,positive).
example(e296,f10,positive).
example(e297,f1,negative).
example(e297,f2,negative).
example(e297,f3,negative).
example(e297,f4,negative).
example(e297,f5,positive).
example(e297,f6,negative).
example(e297,f7,positive).
example(e297,f8,positive).
example(e297,f9,positive).
example(e297,f10,negative).
example(e298,f1,positive).
example(e298,f2,positive).
example(e298,f3,negative).
example(e298,f4,negative).
example(e298,f5,negative).
example(e298,f6,negative).
example(e298,f7,negative).
example(e298,f8,positive).
example(e298,f9,negative).
example(e298,f10,positive).
example(e299,f1,negative).
example(e299,f2,negative).
example(e299,f3,positive).
example(e299,f4,negative).
example(e299,f5,positive).
example(e299,f6,positive).
example(e299,f7,positive).
example(e299,f8,positive).
example(e299,f9,positive).
example(e299,f10,negative).
example(e300,f1,positive).
example(e300,f2,negative).
example(e300,f3,negative).
example(e300,f4,positive).
example(e300,f5,positive).
example(e300,f6,positive).
example(e300,f7,positive).
example(e300,f8,positive).
example(e300,f9,negative).
example(e300,f10,negative).
example(e301,f1,positive).
example(e301,f2,negative).
example(e301,f3,negative).
example(e301,f4,positive).
example(e301,f5,positive).
example(e301,f6,positive).
example(e301,f7,negative).
example(e301,f8,negative).
example(e301,f9,positive).
example(e301,f10,negative).
example(e302,f1,negative).
example(e302,f2,positive).
example(e302,f3,negative).
example(e302,f4,positive).
example(e302,f5,negative).
example(e302,f6,negative).
example(e302,f7,positive).
example(e302,f8,negative).
example(e302,f9,positive).
example(e302,f10,negative).
example(e303,f1,positive).
example(e303,f2,positive).
example(e303,f3,positive).
example(e303,f4,positive).
example(e303,f5,negative).
example(e303,f6,positive).
example(e303,f7,negative).
example(e303,f8,negative).
example(e303,f9,negative).
example(e303,f10,positive).
example(e304,f1,positive).
example(e304,f2,positive).
example(e304,f3,negative).
example(e304,f4,positive).
example(e304,f5,negative).
example(e304,f6,positive).
example(e304,f7,negative).
example(e304,f8,positive).
example(e304,f9,negative).
example(e304,f10,negative).
example(e305,f1,positive).
example(e305,f2,negative).
example(e305,f3,positive).
example(e305,f4,negative).
example(e305,f5,positive).
example(e305,f6,positive).
example(e305,f7,positive).
example(e305,f8,positive).
example(e305,f9,positive).
example(e305,f10,positive).
example(e306,f1,positive).
example(e306,f2,negative).
example(e306,f3,positive).
example(e306,f4,negative).
example(e306,f5,positive).
example(e306,f6,negative).
example(e306,f7,positive).
example(e306,f8,negative).
example(e306,f9,negative).
example(e306,f10,positive).
example(e307,f1,positive).
example(e307,f2,positive).
example(e307,f3,negative).
example(e307,f4,positive).
example(e307,f5,positive).
example(e307,f6,negative).
example(e307,f7,positive).
example(e307,f8,negative).
example(e307,f9,negative).
example(e307,f10,positive).
example(e308,f1,positive).
example(e308,f2,positive).
example(e308,f3,positive).
example(e308,f4,negative).
example(e308,f5,positive).
example(e308,f6,positive).
example(e308,f7,negative).
example(e308,f8,positive).
example(e308,f9,negative).
example(e308,f10,positive).
example(e309,f1,positive).
example(e309,f2,positive).
example(e309,f3,positive).
example(e309,f4,negative).
example(e309,f5,positive).
example(e309,f6,negative).
example(e309,f7,negative).
example(e309,f8,negative).
example(e309,f9,positive).
example(e309,f10,negative).
example(e310,f1,negative).
example(e310,f2,positive).
example(e310,f3,positive).
example(e310,f4,negative).
example(e310,f5,positive).
example(e310,f6,negative).
example(e310,f7,negative).
example(e310,f8,positive).
example(e310,f9,negative).
example(e310,f10,negative).
example(e311,f1,negative).
example(e311,f2,positive).
example(e311,f3,positive).
example(e311,f4,positive).
example(e311,f5,positive).
example(e311,f6,negative).
example(e311,f7,negative).
example(e311,f8,positive).
example(e311,f9,positive).
example(e311,f10,positive).
example(e312,f1,positive).
example(e312,f2,positive).
example(e312,f3,positive).
example(e312,f4,positive).
example(e312,f5,positive).
example(e312,f6,negative).
example(e312,f7,positive).
example(e312,f8,negative).
example(e312,f9,negative).
example(e312,f10,negative).
example(e313,f1,positive).
example(e313,f2,negative).
example(e313,f3,negative).
example(e313,f4,positive).
example(e313,f5,positive).
example(e313,f6,negative).
example(e313,f7,negative).
example(e313,f8,positive).
example(e313,f9,positive).
example(e313,f10,negative).
example(e314,f1,negative).
example(e314,f2,positive).
example(e314,f3,negative).
example(e314,f4,positive).
example(e314,f5,positive).
example(e314,f6,negative).
example(e314,f7,positive).
example(e314,f8,negative).
example(e314,f9,positive).
example(e314,f10,positive).
example(e315,f1,positive).
example(e315,f2,negative).
example(e315,f3,negative).
example(e315,f4,negative).
example(e315,f5,positive).
example(e315,f6,positive).
example(e315,f7,positive).
example(e315,f8,negative).
example(e315,f9,negative).
example(e315,f10,negative).
example(e316,f1,negative).
example(e316,f2,negative).
example(e316,f3,positive).
example(e316,f4,positive).
example(e316,f5,positive).
example(e316,f6,positive).
example(e316,f7,positive).
example(e316,f8,positive).
example(e316,f9,negative).
example(e316,f10,positive).
example(e317,f1,negative).
example(e317,f2,positive).
example(e317,f3,negative).
example(e317,f4,positive).
example(e317,f5,positive).
example(e317,f6,positive).
example(e317,f7,negative).
example(e317,f8,positive).
example(e317,f9,positive).
example(e317,f10,negative).
example(e318,f1,positive).
example(e318,f2,positive).
example(e318,f3,negative).
example(e318,f4,negative).
example(e318,f5,positive).
example(e318,f6,negative).
example(e318,f7,positive).
example(e318,f8,negative).
example(e318,f9,positive).
example(e318,f10,positive).
example(e319,f1,negative).
example(e319,f2,negative).
example(e319,f3,negative).
example(e319,f4,positive).
example(e319,f5,positive).
example(e319,f6,positive).
example(e319,f7,positive).
example(e319,f8,positive).
example(e319,f9,positive).
example(e319,f10,negative).
example(e320,f1,positive).
example(e320,f2,negative).
example(e320,f3,negative).
example(e320,f4,positive).
example(e320,f5,positive).
example(e320,f6,positive).
example(e320,f7,negative).
example(e320,f8,positive).
example(e320,f9,negative).
example(e320,f10,negative).
example(e321,f1,negative).
example(e321,f2,negative).
example(e321,f3,negative).
example(e321,f4,negative).
example(e321,f5,negative).
example(e321,f6,positive).
example(e321,f7,negative).
example(e321,f8,positive).
example(e321,f9,negative).
example(e321,f10,negative).
example(e322,f1,negative).
example(e322,f2,positive).
example(e322,f3,positive).
example(e322,f4,positive).
example(e322,f5,negative).
example(e322,f6,negative).
example(e322,f7,negative).
example(e322,f8,positive).
example(e322,f9,negative).
example(e322,f10,negative).
example(e323,f1,positive).
example(e323,f2,positive).
example(e323,f3,negative).
example(e323,f4,negative).
example(e323,f5,negative).
example(e323,f6,positive).
example(e323,f7,positive).
example(e323,f8,positive).
example(e323,f9,positive).
example(e323,f10,negative).
example(e324,f1,positive).
example(e324,f2,negative).
example(e324,f3,positive).
example(e324,f4,negative).
example(e324,f5,negative).
example(e324,f6,negative).
example(e324,f7,negative).
example(e324,f8,negative).
example(e324,f9,negative).
example(e324,f10,positive).
example(e325,f1,positive).
example(e325,f2,negative).
example(e325,f3,positive).
example(e325,f4,negative).
example(e325,f5,negative).
example(e325,f6,positive).
example(e325,f7,negative).
example(e325,f8,negative).
example(e325,f9,negative).
example(e325,f10,negative).
example(e326,f1,negative).
example(e326,f2,negative).
example(e326,f3,positive).
example(e326,f4,positive).
example(e326,f5,positive).
example(e326,f6,positive).
example(e326,f7,positive).
example(e326,f8,negative).
example(e326,f9,positive).
example(e326,f10,positive).
example(e327,f1,negative).
example(e327,f2,positive).
example(e327,f3,negative).
example(e327,f4,negative).
example(e327,f5,negative).
example(e327,f6,positive).
example(e327,f7,negative).
example(e327,f8,negative).
example(e327,f9,positive).
example(e327,f10,negative).
example(e328,f1,positive).
example(e328,f2,positive).
example(e328,f3,negative).
example(e328,f4,negative).
example(e328,f5,positive).
example(e328,f6,positive).
example(e328,f7,positive).
example(e328,f8,positive).
example(e328,f9,positive).
example(e328,f10,positive).
example(e329,f1,positive).
example(e329,f2,positive).
example(e329,f3,positive).
example(e329,f4,positive).
example(e329,f5,negative).
example(e329,f6,negative).
example(e329,f7,positive).
example(e329,f8,negative).
example(e329,f9,negative).
example(e329,f10,positive).
example(e330,f1,positive).
example(e330,f2,positive).
example(e330,f3,positive).
example(e330,f4,negative).
example(e330,f5,negative).
example(e330,f6,positive).
example(e330,f7,negative).
example(e330,f8,negative).
example(e330,f9,positive).
example(e330,f10,negative).
example(e331,f1,negative).
example(e331,f2,positive).
example(e331,f3,positive).
example(e331,f4,negative).
example(e331,f5,positive).
example(e331,f6,positive).
example(e331,f7,positive).
example(e331,f8,positive).
example(e331,f9,positive).
example(e331,f10,positive).
example(e332,f1,positive).
example(e332,f2,positive).
example(e332,f3,negative).
example(e332,f4,negative).
example(e332,f5,positive).
example(e332,f6,negative).
example(e332,f7,negative).
example(e332,f8,negative).
example(e332,f9,positive).
example(e332,f10,negative).
example(e333,f1,negative).
example(e333,f2,negative).
example(e333,f3,positive).
example(e333,f4,negative).
example(e333,f5,negative).
example(e333,f6,negative).
example(e333,f7,negative).
example(e333,f8,positive).
example(e333,f9,positive).
example(e333,f10,positive).
example(e334,f1,positive).
example(e334,f2,positive).
example(e334,f3,negative).
example(e334,f4,negative).
example(e334,f5,positive).
example(e334,f6,negative).
example(e334,f7,positive).
example(e334,f8,positive).
example(e334,f9,positive).
example(e334,f10,positive).
example(e335,f1,negative).
example(e335,f2,negative).
example(e335,f3,negative).
example(e335,f4,positive).
example(e335,f5,negative).
example(e335,f6,negative).
example(e335,f7,positive).
example(e335,f8,negative).
example(e335,f9,negative).
example(e335,f10,positive).
example(e336,f1,negative).
example(e336,f2,negative).
example(e336,f3,positive).
example(e336,f4,negative).
example(e336,f5,negative).
example(e336,f6,negative).
example(e336,f7,negative).
example(e336,f8,negative).
example(e336,f9,positive).
example(e336,f10,negative).
example(e337,f1,negative).
example(e337,f2,negative).
example(e337,f3,negative).
example(e337,f4,negative).
example(e337,f5,positive).
example(e337,f6,negative).
example(e337,f7,negative).
example(e337,f8,negative).
example(e337,f9,positive).
example(e337,f10,positive).
example(e338,f1,negative).
example(e338,f2,negative).
example(e338,f3,positive).
example(e338,f4,positive).
example(e338,f5,positive).
example(e338,f6,positive).
example(e338,f7,negative).
example(e338,f8,positive).
example(e338,f9,positive).
example(e338,f10,negative).
example(e339,f1,negative).
example(e339,f2,negative).
example(e339,f3,negative).
example(e339,f4,positive).
example(e339,f5,positive).
example(e339,f6,negative).
example(e339,f7,positive).
example(e339,f8,positive).
example(e339,f9,negative).
example(e339,f10,negative).
example(e340,f1,positive).
example(e340,f2,positive).
example(e340,f3,positive).
example(e340,f4,positive).
example(e340,f5,positive).
example(e340,f6,negative).
example(e340,f7,positive).
example(e340,f8,negative).
example(e340,f9,positive).
example(e340,f10,negative).
example(e341,f1,negative).
example(e341,f2,negative).
example(e341,f3,positive).
example(e341,f4,negative).
example(e341,f5,positive).
example(e341,f6,negative).
example(e341,f7,negative).
example(e341,f8,positive).
example(e341,f9,positive).
example(e341,f10,negative).
example(e342,f1,negative).
example(e342,f2,negative).
example(e342,f3,negative).
example(e342,f4,negative).
example(e342,f5,negative).
example(e342,f6,positive).
example(e342,f7,positive).
example(e342,f8,positive).
example(e342,f9,positive).
example(e342,f10,positive).
example(e343,f1,positive).
example(e343,f2,negative).
example(e343,f3,negative).
example(e343,f4,negative).
example(e343,f5,negative).
example(e343,f6,negative).
example(e343,f7,positive).
example(e343,f8,positive).
example(e343,f9,positive).
example(e343,f10,negative).
example(e344,f1,negative).
example(e344,f2,positive).
example(e344,f3,negative).
example(e344,f4,positive).
example(e344,f5,positive).
example(e344,f6,positive).
example(e344,f7,positive).
example(e344,f8,negative).
example(e344,f9,negative).
example(e344,f10,positive).
example(e345,f1,negative).
example(e345,f2,negative).
example(e345,f3,positive).
example(e345,f4,positive).
example(e345,f5,positive).
example(e345,f6,positive).
example(e345,f7,negative).
example(e345,f8,positive).
example(e345,f9,negative).
example(e345,f10,positive).
example(e346,f1,positive).
example(e346,f2,negative).
example(e346,f3,negative).
example(e346,f4,positive).
example(e346,f5,positive).
example(e346,f6,negative).
example(e346,f7,positive).
example(e346,f8,negative).
example(e346,f9,positive).
example(e346,f10,positive).
example(e347,f1,negative).
example(e347,f2,positive).
example(e347,f3,positive).
example(e347,f4,positive).
example(e347,f5,positive).
example(e347,f6,negative).
example(e347,f7,positive).
example(e347,f8,negative).
example(e347,f9,negative).
example(e347,f10,positive).
example(e348,f1,positive).
example(e348,f2,positive).
example(e348,f3,negative).
example(e348,f4,negative).
example(e348,f5,positive).
example(e348,f6,positive).
example(e348,f7,negative).
example(e348,f8,positive).
example(e348,f9,positive).
example(e348,f10,negative).
example(e349,f1,negative).
example(e349,f2,negative).
example(e349,f3,positive).
example(e349,f4,negative).
example(e349,f5,negative).
example(e349,f6,negative).
example(e349,f7,negative).
example(e349,f8,positive).
example(e349,f9,negative).
example(e349,f10,negative).
example(e350,f1,negative).
example(e350,f2,negative).
example(e350,f3,positive).
example(e350,f4,positive).
example(e350,f5,positive).
example(e350,f6,negative).
example(e350,f7,positive).
example(e350,f8,positive).
example(e350,f9,positive).
example(e350,f10,positive).
example(e351,f1,negative).
example(e351,f2,positive).
example(e351,f3,positive).
example(e351,f4,negative).
example(e351,f5,negative).
example(e351,f6,negative).
example(e351,f7,negative).
example(e351,f8,negative).
example(e351,f9,negative).
example(e351,f10,negative).
example(e352,f1,positive).
example(e352,f2,positive).
example(e352,f3,positive).
example(e352,f4,negative).
example(e352,f5,positive).
example(e352,f6,positive).
example(e352,f7,positive).
example(e352,f8,positive).
example(e352,f9,negative).
example(e352,f10,negative).
example(e353,f1,positive).
example(e353,f2,negative).
example(e353,f3,negative).
example(e353,f4,negative).
example(e353,f5,positive).
example(e353,f6,negative).
example(e353,f7,negative).
example(e353,f8,negative).
example(e353,f9,positive).
example(e353,f10,negative).
example(e354,f1,negative).
example(e354,f2,positive).
example(e354,f3,negative).
example(e354,f4,positive).
example(e354,f5,positive).
example(e354,f6,positive).
example(e354,f7,positive).
example(e354,f8,negative).
example(e354,f9,positive).
example(e354,f10,positive).
example(e355,f1,negative).
example(e355,f2,negative).
example(e355,f3,negative).
example(e355,f4,positive).
example(e355,f5,negative).
example(e355,f6,positive).
example(e355,f7,positive).
example(e355,f8,positive).
example(e355,f9,negative).
example(e355,f10,positive).
example(e356,f1,positive).
example(e356,f2,positive).
example(e356,f3,negative).
example(e356,f4,positive).
example(e356,f5,positive).
example(e356,f6,positive).
example(e356,f7,positive).
example(e356,f8,positive).
example(e356,f9,positive).
example(e356,f10,negative).
example(e357,f1,positive).
example(e357,f2,positive).
example(e357,f3,positive).
example(e357,f4,negative).
example(e357,f5,negative).
example(e357,f6,negative).
example(e357,f7,positive).
example(e357,f8,negative).
example(e357,f9,negative).
example(e357,f10,positive).
example(e358,f1,positive).
example(e358,f2,positive).
example(e358,f3,negative).
example(e358,f4,positive).
example(e358,f5,negative).
example(e358,f6,positive).
example(e358,f7,negative).
example(e358,f8,negative).
example(e358,f9,negative).
example(e358,f10,negative).
example(e359,f1,positive).
example(e359,f2,negative).
example(e359,f3,positive).
example(e359,f4,positive).
example(e359,f5,negative).
example(e359,f6,negative).
example(e359,f7,negative).
example(e359,f8,negative).
example(e359,f9,negative).
example(e359,f10,negative).
example(e360,f1,negative).
example(e360,f2,positive).
example(e360,f3,positive).
example(e360,f4,positive).
example(e360,f5,positive).
example(e360,f6,negative).
example(e360,f7,positive).
example(e360,f8,positive).
example(e360,f9,negative).
example(e360,f10,negative).
example(e361,f1,negative).
example(e361,f2,negative).
example(e361,f3,positive).
example(e361,f4,positive).
example(e361,f5,negative).
example(e361,f6,negative).
example(e361,f7,positive).
example(e361,f8,negative).
example(e361,f9,negative).
example(e361,f10,negative).
example(e362,f1,positive).
example(e362,f2,negative).
example(e362,f3,negative).
example(e362,f4,positive).
example(e362,f5,positive).
example(e362,f6,negative).
example(e362,f7,negative).
example(e362,f8,negative).
example(e362,f9,negative).
example(e362,f10,positive).
example(e363,f1,negative).
example(e363,f2,positive).
example(e363,f3,positive).
example(e363,f4,negative).
example(e363,f5,negative).
example(e363,f6,positive).
example(e363,f7,negative).
example(e363,f8,positive).
example(e363,f9,negative).
example(e363,f10,negative).
example(e364,f1,negative).
example(e364,f2,negative).
example(e364,f3,negative).
example(e364,f4,negative).
example(e364,f5,positive).
example(e364,f6,negative).
example(e364,f7,positive).
example(e364,f8,positive).
example(e364,f9,negative).
example(e364,f10,negative).
example(e365,f1,negative).
example(e365,f2,negative).
example(e365,f3,positive).
example(e365,f4,negative).
example(e365,f5,negative).
example(e365,f6,negative).
example(e365,f7,negative).
example(e365,f8,positive).
example(e365,f9,negative).
example(e365,f10,positive).
example(e366,f1,positive).
example(e366,f2,positive).
example(e366,f3,positive).
example(e366,f4,positive).
example(e366,f5,negative).
example(e366,f6,positive).
example(e366,f7,positive).
example(e366,f8,positive).
example(e366,f9,positive).
example(e366,f10,positive).
example(e367,f1,negative).
example(e367,f2,negative).
example(e367,f3,positive).
example(e367,f4,positive).
example(e367,f5,negative).
example(e367,f6,negative).
example(e367,f7,positive).
example(e367,f8,positive).
example(e367,f9,positive).
example(e367,f10,negative).
example(e368,f1,positive).
example(e368,f2,negative).
example(e368,f3,positive).
example(e368,f4,positive).
example(e368,f5,positive).
example(e368,f6,positive).
example(e368,f7,negative).
example(e368,f8,negative).
example(e368,f9,negative).
example(e368,f10,negative).
example(e369,f1,positive).
example(e369,f2,positive).
example(e369,f3,negative).
example(e369,f4,positive).
example(e369,f5,positive).
example(e369,f6,negative).
example(e369,f7,positive).
example(e369,f8,positive).
example(e369,f9,negative).
example(e369,f10,negative).
example(e370,f1,positive).
example(e370,f2,negative).
example(e370,f3,positive).
example(e370,f4,negative).
example(e370,f5,positive).
example(e370,f6,positive).
example(e370,f7,positive).
example(e370,f8,negative).
example(e370,f9,positive).
example(e370,f10,negative).
example(e371,f1,positive).
example(e371,f2,negative).
example(e371,f3,positive).
example(e371,f4,negative).
example(e371,f5,negative).
example(e371,f6,positive).
example(e371,f7,positive).
example(e371,f8,negative).
example(e371,f9,negative).
example(e371,f10,positive).
example(e372,f1,positive).
example(e372,f2,negative).
example(e372,f3,negative).
example(e372,f4,positive).
example(e372,f5,positive).
example(e372,f6,negative).
example(e372,f7,negative).
example(e372,f8,positive).
example(e372,f9,negative).
example(e372,f10,negative).
example(e373,f1,positive).
example(e373,f2,positive).
example(e373,f3,positive).
example(e373,f4,negative).
example(e373,f5,positive).
example(e373,f6,positive).
example(e373,f7,negative).
example(e373,f8,negative).
example(e373,f9,negative).
example(e373,f10,positive).
example(e374,f1,negative).
example(e374,f2,positive).
example(e374,f3,positive).
example(e374,f4,positive).
example(e374,f5,negative).
example(e374,f6,positive).
example(e374,f7,negative).
example(e374,f8,positive).
example(e374,f9,negative).
example(e374,f10,negative).
example(e375,f1,negative).
example(e375,f2,negative).
example(e375,f3,negative).
example(e375,f4,positive).
example(e375,f5,negative).
example(e375,f6,positive).
example(e375,f7,negative).
example(e375,f8,negative).
example(e375,f9,negative).
example(e375,f10,negative).
example(e376,f1,positive).
example(e376,f2,negative).
example(e376,f3,positive).
example(e376,f4,negative).
example(e376,f5,negative).
example(e376,f6,positive).
example(e376,f7,negative).
example(e376,f8,positive).
example(e376,f9,positive).
example(e376,f10,positive).
example(e377,f1,negative).
example(e377,f2,positive).
example(e377,f3,negative).
example(e377,f4,positive).
example(e377,f5,positive).
example(e377,f6,negative).
example(e377,f7,positive).
example(e377,f8,positive).
example(e377,f9,positive).
example(e377,f10,positive).
example(e378,f1,positive).
example(e378,f2,positive).
example(e378,f3,positive).
example(e378,f4,negative).
example(e378,f5,positive).
example(e378,f6,negative).
example(e378,f7,positive).
example(e378,f8,positive).
example(e378,f9,positive).
example(e378,f10,negative).
example(e379,f1,negative).
example(e379,f2,positive).
example(e379,f3,positive).
example(e379,f4,positive).
example(e379,f5,negative).
example(e379,f6,negative).
example(e379,f7,negative).
example(e379,f8,positive).
example(e379,f9,positive).
example(e379,f10,positive).
example(e380,f1,negative).
example(e380,f2,negative).
example(e380,f3,positive).
example(e380,f4,positive).
example(e380,f5,positive).
example(e380,f6,negative).
example(e380,f7,positive).
example(e380,f8,negative).
example(e380,f9,negative).
example(e380,f10,negative).
example(e381,f1,negative).
example(e381,f2,negative).
example(e381,f3,positive).
example(e381,f4,positive).
example(e381,f5,positive).
example(e381,f6,negative).
example(e381,f7,negative).
example(e381,f8,positive).
example(e381,f9,positive).
example(e381,f10,positive).
example(e382,f1,negative).
example(e382,f2,positive).
example(e382,f3,negative).
example(e382,f4,positive).
example(e382,f5,positive).
example(e382,f6,positive).
example(e382,f7,negative).
example(e382,f8,negative).
example(e382,f9,positive).
example(e382,f10,positive).
example(e383,f1,negative).
example(e383,f2,negative).
example(e383,f3,positive).
example(e383,f4,positive).
example(e383,f5,negative).
example(e383,f6,negative).
example(e383,f7,positive).
example(e383,f8,negative).
example(e383,f9,positive).
example(e383,f10,negative).
example(e384,f1,negative).
example(e384,f2,negative).
example(e384,f3,negative).
example(e384,f4,negative).
example(e384,f5,negative).
example(e384,f6,positive).
example(e384,f7,negative).
example(e384,f8,negative).
example(e384,f9,negative).
example(e384,f10,positive).
example(e385,f1,positive).
example(e385,f2,positive).
example(e385,f3,negative).
example(e385,f4,positive).
example(e385,f5,positive).
example(e385,f6,positive).
example(e385,f7,positive).
example(e385,f8,negative).
example(e385,f9,positive).
example(e385,f10,negative).
example(e386,f1,negative).
example(e386,f2,negative).
example(e386,f3,negative).
example(e386,f4,positive).
example(e386,f5,positive).
example(e386,f6,positive).
example(e386,f7,negative).
example(e386,f8,positive).
example(e386,f9,negative).
example(e386,f10,negative).
example(e387,f1,positive).
example(e387,f2,negative).
example(e387,f3,positive).
example(e387,f4,positive).
example(e387,f5,negative).
example(e387,f6,negative).
example(e387,f7,positive).
example(e387,f8,negative).
example(e387,f9,negative).
example(e387,f10,negative).
example(e388,f1,negative).
example(e388,f2,negative).
example(e388,f3,negative).
example(e388,f4,positive).
example(e388,f5,positive).
example(e388,f6,negative).
example(e388,f7,negative).
example(e388,f8,negative).
example(e388,f9,negative).
example(e388,f10,positive).
example(e389,f1,negative).
example(e389,f2,negative).
example(e389,f3,positive).
example(e389,f4,positive).
example(e389,f5,negative).
example(e389,f6,negative).
example(e389,f7,positive).
example(e389,f8,positive).
example(e389,f9,positive).
example(e389,f10,positive).
example(e390,f1,positive).
example(e390,f2,positive).
example(e390,f3,positive).
example(e390,f4,positive).
example(e390,f5,negative).
example(e390,f6,positive).
example(e390,f7,negative).
example(e390,f8,negative).
example(e390,f9,negative).
example(e390,f10,negative).
example(e391,f1,negative).
example(e391,f2,positive).
example(e391,f3,positive).
example(e391,f4,negative).
example(e391,f5,positive).
example(e391,f6,negative).
example(e391,f7,positive).
example(e391,f8,positive).
example(e391,f9,negative).
example(e391,f10,positive).
example(e392,f1,negative).
example(e392,f2,positive).
example(e392,f3,positive).
example(e392,f4,positive).
example(e392,f5,positive).
example(e392,f6,negative).
example(e392,f7,negative).
example(e392,f8,positive).
example(e392,f9,positive).
example(e392,f10,negative).
example(e393,f1,positive).
example(e393,f2,positive).
example(e393,f3,positive).
example(e393,f4,positive).
example(e393,f5,negative).
example(e393,f6,positive).
example(e393,f7,positive).
example(e393,f8,negative).
example(e393,f9,negative).
example(e393,f10,negative).
example(e394,f1,negative).
example(e394,f2,negative).
example(e394,f3,positive).
example(e394,f4,negative).
example(e394,f5,positive).
example(e394,f6,negative).
example(e394,f7,positive).
example(e394,f8,positive).
example(e394,f9,positive).
example(e394,f10,negative).
example(e395,f1,negative).
example(e395,f2,positive).
example(e395,f3,positive).
example(e395,f4,positive).
example(e395,f5,negative).
example(e395,f6,positive).
example(e395,f7,positive).
example(e395,f8,positive).
example(e395,f9,positive).
example(e395,f10,positive).
example(e396,f1,positive).
example(e396,f2,positive).
example(e396,f3,positive).
example(e396,f4,positive).
example(e396,f5,negative).
example(e396,f6,positive).
example(e396,f7,positive).
example(e396,f8,positive).
example(e396,f9,negative).
example(e396,f10,positive).
example(e397,f1,positive).
example(e397,f2,positive).
example(e397,f3,positive).
example(e397,f4,negative).
example(e397,f5,negative).
example(e397,f6,positive).
example(e397,f7,positive).
example(e397,f8,positive).
example(e397,f9,positive).
example(e397,f10,negative).
example(e398,f1,negative).
example(e398,f2,positive).
example(e398,f3,negative).
example(e398,f4,negative).
example(e398,f5,positive).
example(e398,f6,negative).
example(e398,f7,negative).
example(e398,f8,negative).
example(e398,f9,negative).
example(e398,f10,positive).
example(e399,f1,negative).
example(e399,f2,positive).
example(e399,f3,positive).
example(e399,f4,positive).
example(e399,f5,negative).
example(e399,f6,negative).
example(e399,f7,positive).
example(e399,f8,negative).
example(e399,f9,positive).
example(e399,f10,positive).
example(e400,f1,positive).
example(e400,f2,negative).
example(e400,f3,positive).
example(e400,f4,positive).
example(e400,f5,positive).
example(e400,f6,negative).
example(e400,f7,negative).
example(e400,f8,negative).
example(e400,f9,positive).
example(e400,f10,negative).
example(e401,f1,positive).
example(e401,f2,negative).
example(e401,f3,negative).
example(e401,f4,negative).
example(e401,f5,negative).
example(e401,f6,positive).
example(e401,f7,negative).
example(e401,f8,positive).
example(e401,f9,negative).
example(e401,f10,negative).
example(e402,f1,positive).
example(e402,f2,negative).
example(e402,f3,positive).
example(e402,f4,negative).
example(e402,f5,positive).
example(e402,f6,positive).
example(e402,f7,positive).
example(e402,f8,positive).
example(e402,f9,negative).
example(e402,f10,positive).
example(e403,f1,negative).
example(e403,f2,positive).
example(e403,f3,negative).
example(e403,f4,negative).
example(e403,f5,negative).
example(e403,f6,positive).
example(e403,f7,negative).
example(e403,f8,positive).
example(e403,f9,negative).
example(e403,f10,negative).
example(e404,f1,positive).
example(e404,f2,positive).
example(e404,f3,negative).
example(e404,f4,negative).
example(e404,f5,positive).
example(e404,f6,negative).
example(e404,f7,negative).
example(e404,f8,negative).
example(e404,f9,positive).
example(e404,f10,positive).
example(e405,f1,positive).
example(e405,f2,negative).
example(e405,f3,negative).
example(e405,f4,positive).
example(e405,f5,positive).
example(e405,f6,positive).
example(e405,f7,positive).
example(e405,f8,positive).
example(e405,f9,positive).
example(e405,f10,positive).
example(e406,f1,negative).
example(e406,f2,negative).
example(e406,f3,positive).
example(e406,f4,negative).
example(e406,f5,positive).
example(e406,f6,positive).
example(e406,f7,positive).
example(e406,f8,negative).
example(e406,f9,positive).
example(e406,f10,negative).
example(e407,f1,positive).
example(e407,f2,negative).
example(e407,f3,positive).
example(e407,f4,positive).
example(e407,f5,positive).
example(e407,f6,positive).
example(e407,f7,positive).
example(e407,f8,negative).
example(e407,f9,negative).
example(e407,f10,positive).
example(e408,f1,negative).
example(e408,f2,negative).
example(e408,f3,negative).
example(e408,f4,negative).
example(e408,f5,negative).
example(e408,f6,positive).
example(e408,f7,negative).
example(e408,f8,negative).
example(e408,f9,positive).
example(e408,f10,negative).
example(e409,f1,negative).
example(e409,f2,positive).
example(e409,f3,positive).
example(e409,f4,positive).
example(e409,f5,positive).
example(e409,f6,negative).
example(e409,f7,negative).
example(e409,f8,negative).
example(e409,f9,negative).
example(e409,f10,negative).
example(e410,f1,negative).
example(e410,f2,positive).
example(e410,f3,negative).
example(e410,f4,negative).
example(e410,f5,positive).
example(e410,f6,negative).
example(e410,f7,positive).
example(e410,f8,positive).
example(e410,f9,positive).
example(e410,f10,positive).
example(e411,f1,negative).
example(e411,f2,negative).
example(e411,f3,negative).
example(e411,f4,negative).
example(e411,f5,positive).
example(e411,f6,positive).
example(e411,f7,positive).
example(e411,f8,negative).
example(e411,f9,negative).
example(e411,f10,positive).
example(e412,f1,negative).
example(e412,f2,negative).
example(e412,f3,positive).
example(e412,f4,positive).
example(e412,f5,negative).
example(e412,f6,negative).
example(e412,f7,negative).
example(e412,f8,positive).
example(e412,f9,negative).
example(e412,f10,positive).
example(e413,f1,negative).
example(e413,f2,positive).
example(e413,f3,negative).
example(e413,f4,positive).
example(e413,f5,positive).
example(e413,f6,negative).
example(e413,f7,negative).
example(e413,f8,negative).
example(e413,f9,negative).
example(e413,f10,negative).
example(e414,f1,negative).
example(e414,f2,positive).
example(e414,f3,negative).
example(e414,f4,negative).
example(e414,f5,positive).
example(e414,f6,negative).
example(e414,f7,positive).
example(e414,f8,negative).
example(e414,f9,negative).
example(e414,f10,negative).
example(e415,f1,negative).
example(e415,f2,positive).
example(e415,f3,negative).
example(e415,f4,negative).
example(e415,f5,positive).
example(e415,f6,positive).
example(e415,f7,negative).
example(e415,f8,positive).
example(e415,f9,positive).
example(e415,f10,negative).
example(e416,f1,positive).
example(e416,f2,negative).
example(e416,f3,negative).
example(e416,f4,positive).
example(e416,f5,negative).
example(e416,f6,positive).
example(e416,f7,positive).
example(e416,f8,positive).
example(e416,f9,negative).
example(e416,f10,negative).
example(e417,f1,positive).
example(e417,f2,positive).
example(e417,f3,positive).
example(e417,f4,positive).
example(e417,f5,positive).
example(e417,f6,positive).
example(e417,f7,negative).
example(e417,f8,positive).
example(e417,f9,negative).
example(e417,f10,positive).
example(e418,f1,positive).
example(e418,f2,negative).
example(e418,f3,positive).
example(e418,f4,negative).
example(e418,f5,negative).
example(e418,f6,positive).
example(e418,f7,negative).
example(e418,f8,positive).
example(e418,f9,negative).
example(e418,f10,negative).
example(e419,f1,positive).
example(e419,f2,positive).
example(e419,f3,positive).
example(e419,f4,negative).
example(e419,f5,negative).
example(e419,f6,positive).
example(e419,f7,negative).
example(e419,f8,negative).
example(e419,f9,positive).
example(e419,f10,positive).
example(e420,f1,positive).
example(e420,f2,positive).
example(e420,f3,positive).
example(e420,f4,negative).
example(e420,f5,positive).
example(e420,f6,negative).
example(e420,f7,negative).
example(e420,f8,positive).
example(e420,f9,negative).
example(e420,f10,negative).
example(e421,f1,negative).
example(e421,f2,positive).
example(e421,f3,negative).
example(e421,f4,positive).
example(e421,f5,negative).
example(e421,f6,positive).
example(e421,f7,positive).
example(e421,f8,negative).
example(e421,f9,negative).
example(e421,f10,positive).
example(e422,f1,positive).
example(e422,f2,positive).
example(e422,f3,positive).
example(e422,f4,positive).
example(e422,f5,negative).
example(e422,f6,negative).
example(e422,f7,negative).
example(e422,f8,negative).
example(e422,f9,negative).
example(e422,f10,positive).
example(e423,f1,positive).
example(e423,f2,positive).
example(e423,f3,negative).
example(e423,f4,positive).
example(e423,f5,negative).
example(e423,f6,positive).
example(e423,f7,positive).
example(e423,f8,positive).
example(e423,f9,negative).
example(e423,f10,negative).
example(e424,f1,negative).
example(e424,f2,negative).
example(e424,f3,negative).
example(e424,f4,negative).
example(e424,f5,positive).
example(e424,f6,positive).
example(e424,f7,negative).
example(e424,f8,positive).
example(e424,f9,negative).
example(e424,f10,positive).
example(e425,f1,positive).
example(e425,f2,positive).
example(e425,f3,negative).
example(e425,f4,negative).
example(e425,f5,negative).
example(e425,f6,negative).
example(e425,f7,negative).
example(e425,f8,negative).
example(e425,f9,positive).
example(e425,f10,negative).
example(e426,f1,positive).
example(e426,f2,negative).
example(e426,f3,positive).
example(e426,f4,negative).
example(e426,f5,positive).
example(e426,f6,positive).
example(e426,f7,positive).
example(e426,f8,positive).
example(e426,f9,negative).
example(e426,f10,negative).
example(e427,f1,negative).
example(e427,f2,positive).
example(e427,f3,negative).
example(e427,f4,positive).
example(e427,f5,positive).
example(e427,f6,negative).
example(e427,f7,negative).
example(e427,f8,negative).
example(e427,f9,positive).
example(e427,f10,positive).
example(e428,f1,positive).
example(e428,f2,negative).
example(e428,f3,negative).
example(e428,f4,positive).
example(e428,f5,positive).
example(e428,f6,negative).
example(e428,f7,negative).
example(e428,f8,negative).
example(e428,f9,positive).
example(e428,f10,negative).
example(e429,f1,positive).
example(e429,f2,negative).
example(e429,f3,negative).
example(e429,f4,negative).
example(e429,f5,negative).
example(e429,f6,negative).
example(e429,f7,negative).
example(e429,f8,positive).
example(e429,f9,negative).
example(e429,f10,negative).
example(e430,f1,negative).
example(e430,f2,negative).
example(e430,f3,positive).
example(e430,f4,positive).
example(e430,f5,positive).
example(e430,f6,positive).
example(e430,f7,positive).
example(e430,f8,positive).
example(e430,f9,positive).
example(e430,f10,negative).
example(e431,f1,negative).
example(e431,f2,positive).
example(e431,f3,positive).
example(e431,f4,negative).
example(e431,f5,negative).
example(e431,f6,positive).
example(e431,f7,negative).
example(e431,f8,positive).
example(e431,f9,negative).
example(e431,f10,positive).
example(e432,f1,negative).
example(e432,f2,positive).
example(e432,f3,negative).
example(e432,f4,negative).
example(e432,f5,positive).
example(e432,f6,positive).
example(e432,f7,positive).
example(e432,f8,positive).
example(e432,f9,negative).
example(e432,f10,positive).
example(e433,f1,negative).
example(e433,f2,positive).
example(e433,f3,positive).
example(e433,f4,positive).
example(e433,f5,negative).
example(e433,f6,negative).
example(e433,f7,positive).
example(e433,f8,negative).
example(e433,f9,positive).
example(e433,f10,negative).
example(e434,f1,positive).
example(e434,f2,positive).
example(e434,f3,negative).
example(e434,f4,positive).
example(e434,f5,negative).
example(e434,f6,positive).
example(e434,f7,negative).
example(e434,f8,negative).
example(e434,f9,negative).
example(e434,f10,positive).
example(e435,f1,negative).
example(e435,f2,positive).
example(e435,f3,positive).
example(e435,f4,negative).
example(e435,f5,negative).
example(e435,f6,negative).
example(e435,f7,positive).
example(e435,f8,positive).
example(e435,f9,negative).
example(e435,f10,negative).
example(e436,f1,negative).
example(e436,f2,negative).
example(e436,f3,negative).
example(e436,f4,negative).
example(e436,f5,positive).
example(e436,f6,positive).
example(e436,f7,positive).
example(e436,f8,positive).
example(e436,f9,negative).
example(e436,f10,positive).
example(e437,f1,positive).
example(e437,f2,negative).
example(e437,f3,negative).
example(e437,f4,negative).
example(e437,f5,negative).
example(e437,f6,negative).
example(e437,f7,negative).
example(e437,f8,negative).
example(e437,f9,positive).
example(e437,f10,positive).
example(e438,f1,positive).
example(e438,f2,positive).
example(e438,f3,positive).
example(e438,f4,negative).
example(e438,f5,positive).
example(e438,f6,positive).
example(e438,f7,positive).
example(e438,f8,positive).
example(e438,f9,positive).
example(e438,f10,positive).
example(e439,f1,negative).
example(e439,f2,negative).
example(e439,f3,negative).
example(e439,f4,positive).
example(e439,f5,negative).
example(e439,f6,positive).
example(e439,f7,negative).
example(e439,f8,positive).
example(e439,f9,negative).
example(e439,f10,positive).
example(e440,f1,positive).
example(e440,f2,positive).
example(e440,f3,negative).
example(e440,f4,positive).
example(e440,f5,positive).
example(e440,f6,positive).
example(e440,f7,positive).
example(e440,f8,positive).
example(e440,f9,positive).
example(e440,f10,positive).
example(e441,f1,positive).
example(e441,f2,positive).
example(e441,f3,positive).
example(e441,f4,positive).
example(e441,f5,negative).
example(e441,f6,positive).
example(e441,f7,negative).
example(e441,f8,positive).
example(e441,f9,negative).
example(e441,f10,positive).
example(e442,f1,positive).
example(e442,f2,positive).
example(e442,f3,positive).
example(e442,f4,negative).
example(e442,f5,positive).
example(e442,f6,positive).
example(e442,f7,negative).
example(e442,f8,negative).
example(e442,f9,positive).
example(e442,f10,positive).
example(e443,f1,negative).
example(e443,f2,positive).
example(e443,f3,positive).
example(e443,f4,negative).
example(e443,f5,positive).
example(e443,f6,negative).
example(e443,f7,negative).
example(e443,f8,negative).
example(e443,f9,positive).
example(e443,f10,positive).
example(e444,f1,negative).
example(e444,f2,negative).
example(e444,f3,positive).
example(e444,f4,positive).
example(e444,f5,negative).
example(e444,f6,negative).
example(e444,f7,positive).
example(e444,f8,positive).
example(e444,f9,negative).
example(e444,f10,negative).
example(e445,f1,negative).
example(e445,f2,positive).
example(e445,f3,negative).
example(e445,f4,positive).
example(e445,f5,positive).
example(e445,f6,negative).
example(e445,f7,positive).
example(e445,f8,negative).
example(e445,f9,negative).
example(e445,f10,positive).
example(e446,f1,positive).
example(e446,f2,positive).
example(e446,f3,positive).
example(e446,f4,negative).
example(e446,f5,positive).
example(e446,f6,positive).
example(e446,f7,negative).
example(e446,f8,positive).
example(e446,f9,positive).
example(e446,f10,positive).
example(e447,f1,positive).
example(e447,f2,positive).
example(e447,f3,negative).
example(e447,f4,negative).
example(e447,f5,positive).
example(e447,f6,positive).
example(e447,f7,positive).
example(e447,f8,negative).
example(e447,f9,positive).
example(e447,f10,negative).
example(e448,f1,negative).
example(e448,f2,positive).
example(e448,f3,negative).
example(e448,f4,positive).
example(e448,f5,positive).
example(e448,f6,positive).
example(e448,f7,positive).
example(e448,f8,positive).
example(e448,f9,negative).
example(e448,f10,positive).
example(e449,f1,negative).
example(e449,f2,negative).
example(e449,f3,positive).
example(e449,f4,positive).
example(e449,f5,negative).
example(e449,f6,negative).
example(e449,f7,negative).
example(e449,f8,positive).
example(e449,f9,negative).
example(e449,f10,negative).
example(e450,f1,negative).
example(e450,f2,positive).
example(e450,f3,positive).
example(e450,f4,negative).
example(e450,f5,negative).
example(e450,f6,positive).
example(e450,f7,negative).
example(e450,f8,negative).
example(e450,f9,negative).
example(e450,f10,negative).
example(e451,f1,negative).
example(e451,f2,positive).
example(e451,f3,negative).
example(e451,f4,negative).
example(e451,f5,positive).
example(e451,f6,negative).
example(e451,f7,negative).
example(e451,f8,negative).
example(e451,f9,positive).
example(e451,f10,positive).
example(e452,f1,negative).
example(e452,f2,negative).
example(e452,f3,negative).
example(e452,f4,negative).
example(e452,f5,negative).
example(e452,f6,negative).
example(e452,f7,negative).
example(e452,f8,positive).
example(e452,f9,negative).
example(e452,f10,positive).
example(e453,f1,positive).
example(e453,f2,negative).
example(e453,f3,positive).
example(e453,f4,negative).
example(e453,f5,negative).
example(e453,f6,negative).
example(e453,f7,negative).
example(e453,f8,positive).
example(e453,f9,positive).
example(e453,f10,negative).
example(e454,f1,positive).
example(e454,f2,positive).
example(e454,f3,positive).
example(e454,f4,negative).
example(e454,f5,negative).
example(e454,f6,negative).
example(e454,f7,negative).
example(e454,f8,negative).
example(e454,f9,negative).
example(e454,f10,negative).
example(e455,f1,positive).
example(e455,f2,negative).
example(e455,f3,negative).
example(e455,f4,negative).
example(e455,f5,positive).
example(e455,f6,negative).
example(e455,f7,negative).
example(e455,f8,negative).
example(e455,f9,negative).
example(e455,f10,negative).
example(e456,f1,positive).
example(e456,f2,negative).
example(e456,f3,positive).
example(e456,f4,negative).
example(e456,f5,positive).
example(e456,f6,positive).
example(e456,f7,positive).
example(e456,f8,negative).
example(e456,f9,negative).
example(e456,f10,negative).
example(e457,f1,negative).
example(e457,f2,negative).
example(e457,f3,positive).
example(e457,f4,negative).
example(e457,f5,negative).
example(e457,f6,negative).
example(e457,f7,negative).
example(e457,f8,positive).
example(e457,f9,positive).
example(e457,f10,negative).
example(e458,f1,negative).
example(e458,f2,positive).
example(e458,f3,negative).
example(e458,f4,negative).
example(e458,f5,positive).
example(e458,f6,negative).
example(e458,f7,negative).
example(e458,f8,positive).
example(e458,f9,positive).
example(e458,f10,positive).
example(e459,f1,positive).
example(e459,f2,negative).
example(e459,f3,positive).
example(e459,f4,positive).
example(e459,f5,negative).
example(e459,f6,positive).
example(e459,f7,positive).
example(e459,f8,positive).
example(e459,f9,positive).
example(e459,f10,positive).
example(e460,f1,negative).
example(e460,f2,negative).
example(e460,f3,negative).
example(e460,f4,negative).
example(e460,f5,negative).
example(e460,f6,positive).
example(e460,f7,positive).
example(e460,f8,positive).
example(e460,f9,negative).
example(e460,f10,negative).
example(e461,f1,positive).
example(e461,f2,negative).
example(e461,f3,positive).
example(e461,f4,positive).
example(e461,f5,positive).
example(e461,f6,positive).
example(e461,f7,positive).
example(e461,f8,positive).
example(e461,f9,positive).
example(e461,f10,negative).
example(e462,f1,negative).
example(e462,f2,positive).
example(e462,f3,positive).
example(e462,f4,negative).
example(e462,f5,positive).
example(e462,f6,negative).
example(e462,f7,positive).
example(e462,f8,negative).
example(e462,f9,positive).
example(e462,f10,positive).
example(e463,f1,positive).
example(e463,f2,positive).
example(e463,f3,positive).
example(e463,f4,positive).
example(e463,f5,negative).
example(e463,f6,positive).
example(e463,f7,positive).
example(e463,f8,negative).
example(e463,f9,negative).
example(e463,f10,positive).
example(e464,f1,negative).
example(e464,f2,negative).
example(e464,f3,negative).
example(e464,f4,positive).
example(e464,f5,negative).
example(e464,f6,positive).
example(e464,f7,negative).
example(e464,f8,negative).
example(e464,f9,positive).
example(e464,f10,positive).
example(e465,f1,positive).
example(e465,f2,positive).
example(e465,f3,negative).
example(e465,f4,negative).
example(e465,f5,negative).
example(e465,f6,negative).
example(e465,f7,negative).
example(e465,f8,negative).
example(e465,f9,negative).
example(e465,f10,negative).
example(e466,f1,positive).
example(e466,f2,positive).
example(e466,f3,positive).
example(e466,f4,negative).
example(e466,f5,positive).
example(e466,f6,positive).
example(e466,f7,positive).
example(e466,f8,negative).
example(e466,f9,negative).
example(e466,f10,negative).
example(e467,f1,negative).
example(e467,f2,positive).
example(e467,f3,negative).
example(e467,f4,negative).
example(e467,f5,negative).
example(e467,f6,positive).
example(e467,f7,negative).
example(e467,f8,positive).
example(e467,f9,negative).
example(e467,f10,positive).
example(e468,f1,positive).
example(e468,f2,negative).
example(e468,f3,negative).
example(e468,f4,positive).
example(e468,f5,negative).
example(e468,f6,positive).
example(e468,f7,positive).
example(e468,f8,positive).
example(e468,f9,positive).
example(e468,f10,positive).
example(e469,f1,positive).
example(e469,f2,positive).
example(e469,f3,negative).
example(e469,f4,positive).
example(e469,f5,negative).
example(e469,f6,negative).
example(e469,f7,positive).
example(e469,f8,negative).
example(e469,f9,positive).
example(e469,f10,negative).
example(e470,f1,positive).
example(e470,f2,negative).
example(e470,f3,negative).
example(e470,f4,negative).
example(e470,f5,positive).
example(e470,f6,positive).
example(e470,f7,positive).
example(e470,f8,positive).
example(e470,f9,positive).
example(e470,f10,positive).
example(e471,f1,negative).
example(e471,f2,positive).
example(e471,f3,negative).
example(e471,f4,positive).
example(e471,f5,positive).
example(e471,f6,negative).
example(e471,f7,negative).
example(e471,f8,positive).
example(e471,f9,negative).
example(e471,f10,positive).
example(e472,f1,positive).
example(e472,f2,negative).
example(e472,f3,negative).
example(e472,f4,positive).
example(e472,f5,positive).
example(e472,f6,positive).
example(e472,f7,positive).
example(e472,f8,negative).
example(e472,f9,negative).
example(e472,f10,positive).
example(e473,f1,negative).
example(e473,f2,negative).
example(e473,f3,negative).
example(e473,f4,positive).
example(e473,f5,positive).
example(e473,f6,positive).
example(e473,f7,negative).
example(e473,f8,positive).
example(e473,f9,negative).
example(e473,f10,positive).
example(e474,f1,negative).
example(e474,f2,negative).
example(e474,f3,negative).
example(e474,f4,positive).
example(e474,f5,positive).
example(e474,f6,negative).
example(e474,f7,positive).
example(e474,f8,negative).
example(e474,f9,positive).
example(e474,f10,negative).
example(e475,f1,positive).
example(e475,f2,negative).
example(e475,f3,negative).
example(e475,f4,positive).
example(e475,f5,positive).
example(e475,f6,positive).
example(e475,f7,negative).
example(e475,f8,positive).
example(e475,f9,negative).
example(e475,f10,positive).
example(e476,f1,positive).
example(e476,f2,negative).
example(e476,f3,positive).
example(e476,f4,positive).
example(e476,f5,positive).
example(e476,f6,positive).
example(e476,f7,negative).
example(e476,f8,positive).
example(e476,f9,positive).
example(e476,f10,positive).
example(e477,f1,positive).
example(e477,f2,negative).
example(e477,f3,negative).
example(e477,f4,negative).
example(e477,f5,positive).
example(e477,f6,positive).
example(e477,f7,negative).
example(e477,f8,positive).
example(e477,f9,negative).
example(e477,f10,negative).
example(e478,f1,negative).
example(e478,f2,positive).
example(e478,f3,positive).
example(e478,f4,negative).
example(e478,f5,positive).
example(e478,f6,positive).
example(e478,f7,positive).
example(e478,f8,positive).
example(e478,f9,negative).
example(e478,f10,negative).
example(e479,f1,negative).
example(e479,f2,negative).
example(e479,f3,positive).
example(e479,f4,positive).
example(e479,f5,negative).
example(e479,f6,positive).
example(e479,f7,positive).
example(e479,f8,positive).
example(e479,f9,positive).
example(e479,f10,positive).
example(e480,f1,positive).
example(e480,f2,negative).
example(e480,f3,negative).
example(e480,f4,positive).
example(e480,f5,positive).
example(e480,f6,negative).
example(e480,f7,positive).
example(e480,f8,positive).
example(e480,f9,positive).
example(e480,f10,negative).
example(e481,f1,negative).
example(e481,f2,positive).
example(e481,f3,negative).
example(e481,f4,positive).
example(e481,f5,positive).
example(e481,f6,negative).
example(e481,f7,positive).
example(e481,f8,negative).
example(e481,f9,negative).
example(e481,f10,negative).
example(e482,f1,positive).
example(e482,f2,negative).
example(e482,f3,negative).
example(e482,f4,negative).
example(e482,f5,negative).
example(e482,f6,negative).
example(e482,f7,positive).
example(e482,f8,negative).
example(e482,f9,positive).
example(e482,f10,negative).
example(e483,f1,positive).
example(e483,f2,positive).
example(e483,f3,positive).
example(e483,f4,positive).
example(e483,f5,positive).
example(e483,f6,negative).
example(e483,f7,negative).
example(e483,f8,negative).
example(e483,f9,negative).
example(e483,f10,negative).
example(e484,f1,negative).
example(e484,f2,positive).
example(e484,f3,negative).
example(e484,f4,negative).
example(e484,f5,positive).
example(e484,f6,positive).
example(e484,f7,positive).
example(e484,f8,negative).
example(e484,f9,negative).
example(e484,f10,negative).
example(e485,f1,positive).
example(e485,f2,negative).
example(e485,f3,positive).
example(e485,f4,negative).
example(e485,f5,negative).
example(e485,f6,negative).
example(e485,f7,positive).
example(e485,f8,negative).
example(e485,f9,positive).
example(e485,f10,positive).
example(e486,f1,negative).
example(e486,f2,negative).
example(e486,f3,positive).
example(e486,f4,negative).
example(e486,f5,negative).
example(e486,f6,positive).
example(e486,f7,positive).
example(e486,f8,positive).
example(e486,f9,positive).
example(e486,f10,positive).
example(e487,f1,negative).
example(e487,f2,negative).
example(e487,f3,positive).
example(e487,f4,positive).
example(e487,f5,positive).
example(e487,f6,negative).
example(e487,f7,positive).
example(e487,f8,positive).
example(e487,f9,positive).
example(e487,f10,negative).
example(e488,f1,positive).
example(e488,f2,positive).
example(e488,f3,negative).
example(e488,f4,positive).
example(e488,f5,positive).
example(e488,f6,negative).
example(e488,f7,positive).
example(e488,f8,positive).
example(e488,f9,positive).
example(e488,f10,positive).
example(e489,f1,negative).
example(e489,f2,positive).
example(e489,f3,positive).
example(e489,f4,negative).
example(e489,f5,positive).
example(e489,f6,positive).
example(e489,f7,positive).
example(e489,f8,negative).
example(e489,f9,negative).
example(e489,f10,positive).
example(e490,f1,positive).
example(e490,f2,negative).
example(e490,f3,negative).
example(e490,f4,negative).
example(e490,f5,positive).
example(e490,f6,positive).
example(e490,f7,positive).
example(e490,f8,positive).
example(e490,f9,negative).
example(e490,f10,positive).
example(e491,f1,positive).
example(e491,f2,positive).
example(e491,f3,positive).
example(e491,f4,negative).
example(e491,f5,positive).
example(e491,f6,positive).
example(e491,f7,negative).
example(e491,f8,positive).
example(e491,f9,negative).
example(e491,f10,negative).
example(e492,f1,positive).
example(e492,f2,negative).
example(e492,f3,negative).
example(e492,f4,positive).
example(e492,f5,negative).
example(e492,f6,negative).
example(e492,f7,negative).
example(e492,f8,positive).
example(e492,f9,positive).
example(e492,f10,positive).
example(e493,f1,positive).
example(e493,f2,negative).
example(e493,f3,positive).
example(e493,f4,negative).
example(e493,f5,positive).
example(e493,f6,positive).
example(e493,f7,negative).
example(e493,f8,negative).
example(e493,f9,negative).
example(e493,f10,positive).
example(e494,f1,positive).
example(e494,f2,positive).
example(e494,f3,positive).
example(e494,f4,positive).
example(e494,f5,negative).
example(e494,f6,negative).
example(e494,f7,positive).
example(e494,f8,negative).
example(e494,f9,positive).
example(e494,f10,negative).
example(e495,f1,negative).
example(e495,f2,positive).
example(e495,f3,positive).
example(e495,f4,negative).
example(e495,f5,negative).
example(e495,f6,positive).
example(e495,f7,negative).
example(e495,f8,positive).
example(e495,f9,positive).
example(e495,f10,positive).
example(e496,f1,negative).
example(e496,f2,negative).
example(e496,f3,positive).
example(e496,f4,positive).
example(e496,f5,positive).
example(e496,f6,negative).
example(e496,f7,positive).
example(e496,f8,positive).
example(e496,f9,negative).
example(e496,f10,negative).
example(e497,f1,negative).
example(e497,f2,positive).
example(e497,f3,negative).
example(e497,f4,negative).
example(e497,f5,positive).
example(e497,f6,negative).
example(e497,f7,negative).
example(e497,f8,positive).
example(e497,f9,positive).
example(e497,f10,negative).
example(e498,f1,negative).
example(e498,f2,positive).
example(e498,f3,negative).
example(e498,f4,negative).
example(e498,f5,negative).
example(e498,f6,negative).
example(e498,f7,negative).
example(e498,f8,positive).
example(e498,f9,negative).
example(e498,f10,negative).
example(e499,f1,positive).
example(e499,f2,negative).
example(e499,f3,negative).
example(e499,f4,negative).
example(e499,f5,positive).
example(e499,f6,negative).
example(e499,f7,negative).
example(e499,f8,negative).
example(e499,f9,negative).
example(e499,f10,positive).
example(e500,f1,negative).
example(e500,f2,positive).
example(e500,f3,negative).
example(e500,f4,positive).
example(e500,f5,positive).
example(e500,f6,positive).
example(e500,f7,positive).
example(e500,f8,positive).
example(e500,f9,positive).
example(e500,f10,positive).
example(e501,f1,positive).
example(e501,f2,negative).
example(e501,f3,negative).
example(e501,f4,positive).
example(e501,f5,negative).
example(e501,f6,negative).
example(e501,f7,positive).
example(e501,f8,positive).
example(e501,f9,negative).
example(e501,f10,negative).
example(e502,f1,positive).
example(e502,f2,positive).
example(e502,f3,negative).
example(e502,f4,positive).
example(e502,f5,positive).
example(e502,f6,negative).
example(e502,f7,positive).
example(e502,f8,positive).
example(e502,f9,negative).
example(e502,f10,positive).
example(e503,f1,positive).
example(e503,f2,negative).
example(e503,f3,negative).
example(e503,f4,positive).
example(e503,f5,positive).
example(e503,f6,positive).
example(e503,f7,negative).
example(e503,f8,negative).
example(e503,f9,negative).
example(e503,f10,positive).
example(e504,f1,positive).
example(e504,f2,negative).
example(e504,f3,negative).
example(e504,f4,negative).
example(e504,f5,positive).
example(e504,f6,negative).
example(e504,f7,positive).
example(e504,f8,positive).
example(e504,f9,negative).
example(e504,f10,negative).
example(e505,f1,positive).
example(e505,f2,negative).
example(e505,f3,negative).
example(e505,f4,negative).
example(e505,f5,negative).
example(e505,f6,negative).
example(e505,f7,positive).
example(e505,f8,negative).
example(e505,f9,negative).
example(e505,f10,positive).
example(e506,f1,positive).
example(e506,f2,negative).
example(e506,f3,positive).
example(e506,f4,negative).
example(e506,f5,negative).
example(e506,f6,positive).
example(e506,f7,positive).
example(e506,f8,positive).
example(e506,f9,positive).
example(e506,f10,negative).
example(e507,f1,negative).
example(e507,f2,positive).
example(e507,f3,negative).
example(e507,f4,positive).
example(e507,f5,positive).
example(e507,f6,negative).
example(e507,f7,positive).
example(e507,f8,positive).
example(e507,f9,negative).
example(e507,f10,positive).
example(e508,f1,negative).
example(e508,f2,positive).
example(e508,f3,negative).
example(e508,f4,negative).
example(e508,f5,negative).
example(e508,f6,negative).
example(e508,f7,negative).
example(e508,f8,positive).
example(e508,f9,negative).
example(e508,f10,positive).
example(e509,f1,negative).
example(e509,f2,positive).
example(e509,f3,positive).
example(e509,f4,positive).
example(e509,f5,negative).
example(e509,f6,negative).
example(e509,f7,positive).
example(e509,f8,positive).
example(e509,f9,positive).
example(e509,f10,positive).
example(e510,f1,negative).
example(e510,f2,negative).
example(e510,f3,positive).
example(e510,f4,negative).
example(e510,f5,positive).
example(e510,f6,negative).
example(e510,f7,positive).
example(e510,f8,negative).
example(e510,f9,negative).
example(e510,f10,positive).
example(e511,f1,positive).
example(e511,f2,negative).
example(e511,f3,positive).
example(e511,f4,positive).
example(e511,f5,negative).
example(e511,f6,positive).
example(e511,f7,positive).
example(e511,f8,negative).
example(e511,f9,negative).
example(e511,f10,negative).
example(e512,f1,negative).
example(e512,f2,negative).
example(e512,f3,negative).
example(e512,f4,negative).
example(e512,f5,negative).
example(e512,f6,negative).
example(e512,f7,positive).
example(e512,f8,positive).
example(e512,f9,positive).
example(e512,f10,negative).
example(e513,f1,positive).
example(e513,f2,positive).
example(e513,f3,negative).
example(e513,f4,negative).
example(e513,f5,negative).
example(e513,f6,positive).
example(e513,f7,positive).
example(e513,f8,positive).
example(e513,f9,positive).
example(e513,f10,positive).
example(e514,f1,negative).
example(e514,f2,positive).
example(e514,f3,negative).
example(e514,f4,negative).
example(e514,f5,positive).
example(e514,f6,positive).
example(e514,f7,positive).
example(e514,f8,negative).
example(e514,f9,positive).
example(e514,f10,negative).
example(e515,f1,negative).
example(e515,f2,negative).
example(e515,f3,negative).
example(e515,f4,negative).
example(e515,f5,positive).
example(e515,f6,positive).
example(e515,f7,positive).
example(e515,f8,positive).
example(e515,f9,negative).
example(e515,f10,negative).
example(e516,f1,positive).
example(e516,f2,negative).
example(e516,f3,positive).
example(e516,f4,positive).
example(e516,f5,negative).
example(e516,f6,negative).
example(e516,f7,negative).
example(e516,f8,positive).
example(e516,f9,negative).
example(e516,f10,negative).
example(e517,f1,positive).
example(e517,f2,positive).
example(e517,f3,negative).
example(e517,f4,positive).
example(e517,f5,negative).
example(e517,f6,positive).
example(e517,f7,positive).
example(e517,f8,positive).
example(e517,f9,positive).
example(e517,f10,positive).
example(e518,f1,negative).
example(e518,f2,positive).
example(e518,f3,positive).
example(e518,f4,negative).
example(e518,f5,negative).
example(e518,f6,negative).
example(e518,f7,negative).
example(e518,f8,negative).
example(e518,f9,positive).
example(e518,f10,negative).
example(e519,f1,positive).
example(e519,f2,positive).
example(e519,f3,negative).
example(e519,f4,negative).
example(e519,f5,negative).
example(e519,f6,positive).
example(e519,f7,positive).
example(e519,f8,positive).
example(e519,f9,negative).
example(e519,f10,negative).
example(e520,f1,negative).
example(e520,f2,positive).
example(e520,f3,negative).
example(e520,f4,positive).
example(e520,f5,positive).
example(e520,f6,positive).
example(e520,f7,positive).
example(e520,f8,positive).
example(e520,f9,negative).
example(e520,f10,negative).
example(e521,f1,positive).
example(e521,f2,positive).
example(e521,f3,positive).
example(e521,f4,positive).
example(e521,f5,negative).
example(e521,f6,negative).
example(e521,f7,negative).
example(e521,f8,positive).
example(e521,f9,negative).
example(e521,f10,positive).
example(e522,f1,positive).
example(e522,f2,positive).
example(e522,f3,negative).
example(e522,f4,negative).
example(e522,f5,positive).
example(e522,f6,negative).
example(e522,f7,positive).
example(e522,f8,negative).
example(e522,f9,negative).
example(e522,f10,negative).
example(e523,f1,positive).
example(e523,f2,negative).
example(e523,f3,negative).
example(e523,f4,positive).
example(e523,f5,positive).
example(e523,f6,negative).
example(e523,f7,positive).
example(e523,f8,positive).
example(e523,f9,negative).
example(e523,f10,negative).
example(e524,f1,positive).
example(e524,f2,positive).
example(e524,f3,negative).
example(e524,f4,positive).
example(e524,f5,negative).
example(e524,f6,negative).
example(e524,f7,negative).
example(e524,f8,positive).
example(e524,f9,negative).
example(e524,f10,negative).
example(e525,f1,negative).
example(e525,f2,negative).
example(e525,f3,positive).
example(e525,f4,negative).
example(e525,f5,positive).
example(e525,f6,negative).
example(e525,f7,positive).
example(e525,f8,negative).
example(e525,f9,negative).
example(e525,f10,negative).
example(e526,f1,negative).
example(e526,f2,negative).
example(e526,f3,positive).
example(e526,f4,negative).
example(e526,f5,negative).
example(e526,f6,negative).
example(e526,f7,positive).
example(e526,f8,positive).
example(e526,f9,negative).
example(e526,f10,positive).
example(e527,f1,negative).
example(e527,f2,negative).
example(e527,f3,negative).
example(e527,f4,positive).
example(e527,f5,positive).
example(e527,f6,negative).
example(e527,f7,negative).
example(e527,f8,positive).
example(e527,f9,positive).
example(e527,f10,negative).
example(e528,f1,negative).
example(e528,f2,negative).
example(e528,f3,negative).
example(e528,f4,positive).
example(e528,f5,positive).
example(e528,f6,negative).
example(e528,f7,positive).
example(e528,f8,negative).
example(e528,f9,positive).
example(e528,f10,positive).
example(e529,f1,negative).
example(e529,f2,negative).
example(e529,f3,negative).
example(e529,f4,negative).
example(e529,f5,negative).
example(e529,f6,positive).
example(e529,f7,negative).
example(e529,f8,positive).
example(e529,f9,positive).
example(e529,f10,negative).
example(e530,f1,positive).
example(e530,f2,negative).
example(e530,f3,positive).
example(e530,f4,positive).
example(e530,f5,positive).
example(e530,f6,negative).
example(e530,f7,negative).
example(e530,f8,positive).
example(e530,f9,negative).
example(e530,f10,negative).
example(e531,f1,positive).
example(e531,f2,negative).
example(e531,f3,negative).
example(e531,f4,negative).
example(e531,f5,negative).
example(e531,f6,positive).
example(e531,f7,positive).
example(e531,f8,negative).
example(e531,f9,negative).
example(e531,f10,positive).
example(e532,f1,negative).
example(e532,f2,positive).
example(e532,f3,negative).
example(e532,f4,negative).
example(e532,f5,negative).
example(e532,f6,positive).
example(e532,f7,positive).
example(e532,f8,positive).
example(e532,f9,negative).
example(e532,f10,positive).
example(e533,f1,positive).
example(e533,f2,positive).
example(e533,f3,positive).
example(e533,f4,positive).
example(e533,f5,positive).
example(e533,f6,positive).
example(e533,f7,positive).
example(e533,f8,negative).
example(e533,f9,positive).
example(e533,f10,negative).
example(e534,f1,negative).
example(e534,f2,positive).
example(e534,f3,positive).
example(e534,f4,negative).
example(e534,f5,positive).
example(e534,f6,negative).
example(e534,f7,positive).
example(e534,f8,negative).
example(e534,f9,negative).
example(e534,f10,positive).
example(e535,f1,positive).
example(e535,f2,positive).
example(e535,f3,positive).
example(e535,f4,negative).
example(e535,f5,positive).
example(e535,f6,negative).
example(e535,f7,negative).
example(e535,f8,positive).
example(e535,f9,negative).
example(e535,f10,positive).
example(e536,f1,positive).
example(e536,f2,positive).
example(e536,f3,positive).
example(e536,f4,negative).
example(e536,f5,positive).
example(e536,f6,positive).
example(e536,f7,positive).
example(e536,f8,negative).
example(e536,f9,positive).
example(e536,f10,positive).
example(e537,f1,negative).
example(e537,f2,negative).
example(e537,f3,positive).
example(e537,f4,negative).
example(e537,f5,positive).
example(e537,f6,negative).
example(e537,f7,positive).
example(e537,f8,negative).
example(e537,f9,positive).
example(e537,f10,negative).
example(e538,f1,positive).
example(e538,f2,negative).
example(e538,f3,positive).
example(e538,f4,negative).
example(e538,f5,negative).
example(e538,f6,positive).
example(e538,f7,negative).
example(e538,f8,positive).
example(e538,f9,negative).
example(e538,f10,positive).
example(e539,f1,negative).
example(e539,f2,positive).
example(e539,f3,negative).
example(e539,f4,negative).
example(e539,f5,negative).
example(e539,f6,positive).
example(e539,f7,positive).
example(e539,f8,positive).
example(e539,f9,positive).
example(e539,f10,positive).
example(e540,f1,positive).
example(e540,f2,positive).
example(e540,f3,negative).
example(e540,f4,negative).
example(e540,f5,negative).
example(e540,f6,negative).
example(e540,f7,positive).
example(e540,f8,positive).
example(e540,f9,positive).
example(e540,f10,negative).
example(e541,f1,negative).
example(e541,f2,negative).
example(e541,f3,negative).
example(e541,f4,positive).
example(e541,f5,negative).
example(e541,f6,positive).
example(e541,f7,positive).
example(e541,f8,positive).
example(e541,f9,positive).
example(e541,f10,negative).
example(e542,f1,negative).
example(e542,f2,positive).
example(e542,f3,positive).
example(e542,f4,positive).
example(e542,f5,negative).
example(e542,f6,negative).
example(e542,f7,positive).
example(e542,f8,positive).
example(e542,f9,positive).
example(e542,f10,negative).
example(e543,f1,negative).
example(e543,f2,negative).
example(e543,f3,negative).
example(e543,f4,negative).
example(e543,f5,positive).
example(e543,f6,negative).
example(e543,f7,negative).
example(e543,f8,negative).
example(e543,f9,negative).
example(e543,f10,positive).
example(e544,f1,negative).
example(e544,f2,positive).
example(e544,f3,positive).
example(e544,f4,negative).
example(e544,f5,negative).
example(e544,f6,negative).
example(e544,f7,negative).
example(e544,f8,positive).
example(e544,f9,negative).
example(e544,f10,negative).
example(e545,f1,negative).
example(e545,f2,negative).
example(e545,f3,negative).
example(e545,f4,negative).
example(e545,f5,negative).
example(e545,f6,positive).
example(e545,f7,positive).
example(e545,f8,positive).
example(e545,f9,negative).
example(e545,f10,positive).
example(e546,f1,positive).
example(e546,f2,positive).
example(e546,f3,negative).
example(e546,f4,negative).
example(e546,f5,positive).
example(e546,f6,negative).
example(e546,f7,positive).
example(e546,f8,positive).
example(e546,f9,negative).
example(e546,f10,negative).
example(e547,f1,positive).
example(e547,f2,positive).
example(e547,f3,negative).
example(e547,f4,positive).
example(e547,f5,positive).
example(e547,f6,positive).
example(e547,f7,negative).
example(e547,f8,positive).
example(e547,f9,positive).
example(e547,f10,negative).
example(e548,f1,negative).
example(e548,f2,negative).
example(e548,f3,positive).
example(e548,f4,negative).
example(e548,f5,negative).
example(e548,f6,negative).
example(e548,f7,positive).
example(e548,f8,negative).
example(e548,f9,negative).
example(e548,f10,negative).
example(e549,f1,negative).
example(e549,f2,negative).
example(e549,f3,negative).
example(e549,f4,positive).
example(e549,f5,positive).
example(e549,f6,negative).
example(e549,f7,positive).
example(e549,f8,positive).
example(e549,f9,positive).
example(e549,f10,negative).
example(e550,f1,positive).
example(e550,f2,negative).
example(e550,f3,negative).
example(e550,f4,negative).
example(e550,f5,positive).
example(e550,f6,positive).
example(e550,f7,negative).
example(e550,f8,positive).
example(e550,f9,negative).
example(e550,f10,positive).
example(e551,f1,positive).
example(e551,f2,negative).
example(e551,f3,positive).
example(e551,f4,negative).
example(e551,f5,negative).
example(e551,f6,negative).
example(e551,f7,positive).
example(e551,f8,negative).
example(e551,f9,positive).
example(e551,f10,negative).
example(e552,f1,negative).
example(e552,f2,negative).
example(e552,f3,positive).
example(e552,f4,positive).
example(e552,f5,positive).
example(e552,f6,positive).
example(e552,f7,positive).
example(e552,f8,negative).
example(e552,f9,negative).
example(e552,f10,positive).
example(e553,f1,positive).
example(e553,f2,negative).
example(e553,f3,negative).
example(e553,f4,negative).
example(e553,f5,positive).
example(e553,f6,negative).
example(e553,f7,positive).
example(e553,f8,positive).
example(e553,f9,negative).
example(e553,f10,positive).
example(e554,f1,positive).
example(e554,f2,positive).
example(e554,f3,negative).
example(e554,f4,positive).
example(e554,f5,positive).
example(e554,f6,positive).
example(e554,f7,negative).
example(e554,f8,positive).
example(e554,f9,positive).
example(e554,f10,positive).
example(e555,f1,positive).
example(e555,f2,positive).
example(e555,f3,positive).
example(e555,f4,negative).
example(e555,f5,positive).
example(e555,f6,negative).
example(e555,f7,positive).
example(e555,f8,negative).
example(e555,f9,negative).
example(e555,f10,negative).
example(e556,f1,positive).
example(e556,f2,negative).
example(e556,f3,negative).
example(e556,f4,positive).
example(e556,f5,negative).
example(e556,f6,positive).
example(e556,f7,positive).
example(e556,f8,positive).
example(e556,f9,positive).
example(e556,f10,negative).
example(e557,f1,positive).
example(e557,f2,negative).
example(e557,f3,negative).
example(e557,f4,positive).
example(e557,f5,positive).
example(e557,f6,positive).
example(e557,f7,negative).
example(e557,f8,negative).
example(e557,f9,positive).
example(e557,f10,positive).
example(e558,f1,negative).
example(e558,f2,positive).
example(e558,f3,negative).
example(e558,f4,positive).
example(e558,f5,positive).
example(e558,f6,positive).
example(e558,f7,positive).
example(e558,f8,negative).
example(e558,f9,negative).
example(e558,f10,negative).
example(e559,f1,positive).
example(e559,f2,positive).
example(e559,f3,positive).
example(e559,f4,positive).
example(e559,f5,negative).
example(e559,f6,negative).
example(e559,f7,positive).
example(e559,f8,positive).
example(e559,f9,negative).
example(e559,f10,positive).
example(e560,f1,negative).
example(e560,f2,positive).
example(e560,f3,negative).
example(e560,f4,positive).
example(e560,f5,positive).
example(e560,f6,negative).
example(e560,f7,positive).
example(e560,f8,positive).
example(e560,f9,positive).
example(e560,f10,negative).
example(e561,f1,positive).
example(e561,f2,positive).
example(e561,f3,positive).
example(e561,f4,negative).
example(e561,f5,positive).
example(e561,f6,positive).
example(e561,f7,positive).
example(e561,f8,negative).
example(e561,f9,negative).
example(e561,f10,positive).
example(e562,f1,positive).
example(e562,f2,positive).
example(e562,f3,positive).
example(e562,f4,negative).
example(e562,f5,negative).
example(e562,f6,positive).
example(e562,f7,positive).
example(e562,f8,positive).
example(e562,f9,negative).
example(e562,f10,positive).
example(e563,f1,negative).
example(e563,f2,negative).
example(e563,f3,positive).
example(e563,f4,positive).
example(e563,f5,negative).
example(e563,f6,positive).
example(e563,f7,positive).
example(e563,f8,positive).
example(e563,f9,positive).
example(e563,f10,negative).
example(e564,f1,positive).
example(e564,f2,positive).
example(e564,f3,negative).
example(e564,f4,positive).
example(e564,f5,positive).
example(e564,f6,positive).
example(e564,f7,negative).
example(e564,f8,negative).
example(e564,f9,positive).
example(e564,f10,negative).
example(e565,f1,positive).
example(e565,f2,positive).
example(e565,f3,positive).
example(e565,f4,negative).
example(e565,f5,positive).
example(e565,f6,negative).
example(e565,f7,positive).
example(e565,f8,negative).
example(e565,f9,positive).
example(e565,f10,positive).
example(e566,f1,positive).
example(e566,f2,positive).
example(e566,f3,negative).
example(e566,f4,positive).
example(e566,f5,negative).
example(e566,f6,positive).
example(e566,f7,negative).
example(e566,f8,positive).
example(e566,f9,positive).
example(e566,f10,negative).
example(e567,f1,negative).
example(e567,f2,positive).
example(e567,f3,negative).
example(e567,f4,positive).
example(e567,f5,negative).
example(e567,f6,negative).
example(e567,f7,positive).
example(e567,f8,negative).
example(e567,f9,positive).
example(e567,f10,positive).
example(e568,f1,positive).
example(e568,f2,negative).
example(e568,f3,positive).
example(e568,f4,negative).
example(e568,f5,negative).
example(e568,f6,negative).
example(e568,f7,positive).
example(e568,f8,positive).
example(e568,f9,positive).
example(e568,f10,negative).
example(e569,f1,negative).
example(e569,f2,positive).
example(e569,f3,positive).
example(e569,f4,negative).
example(e569,f5,positive).
example(e569,f6,negative).
example(e569,f7,negative).
example(e569,f8,negative).
example(e569,f9,negative).
example(e569,f10,positive).
example(e570,f1,positive).
example(e570,f2,negative).
example(e570,f3,negative).
example(e570,f4,positive).
example(e570,f5,negative).
example(e570,f6,positive).
example(e570,f7,positive).
example(e570,f8,negative).
example(e570,f9,negative).
example(e570,f10,negative).
example(e571,f1,negative).
example(e571,f2,negative).
example(e571,f3,positive).
example(e571,f4,negative).
example(e571,f5,positive).
example(e571,f6,positive).
example(e571,f7,positive).
example(e571,f8,negative).
example(e571,f9,positive).
example(e571,f10,positive).
example(e572,f1,negative).
example(e572,f2,positive).
example(e572,f3,positive).
example(e572,f4,positive).
example(e572,f5,positive).
example(e572,f6,positive).
example(e572,f7,positive).
example(e572,f8,negative).
example(e572,f9,positive).
example(e572,f10,positive).
example(e573,f1,positive).
example(e573,f2,negative).
example(e573,f3,negative).
example(e573,f4,negative).
example(e573,f5,negative).
example(e573,f6,positive).
example(e573,f7,negative).
example(e573,f8,positive).
example(e573,f9,negative).
example(e573,f10,positive).
example(e574,f1,negative).
example(e574,f2,positive).
example(e574,f3,positive).
example(e574,f4,negative).
example(e574,f5,negative).
example(e574,f6,negative).
example(e574,f7,negative).
example(e574,f8,negative).
example(e574,f9,positive).
example(e574,f10,positive).
example(e575,f1,positive).
example(e575,f2,negative).
example(e575,f3,positive).
example(e575,f4,positive).
example(e575,f5,negative).
example(e575,f6,positive).
example(e575,f7,positive).
example(e575,f8,positive).
example(e575,f9,positive).
example(e575,f10,negative).
example(e576,f1,positive).
example(e576,f2,positive).
example(e576,f3,positive).
example(e576,f4,positive).
example(e576,f5,positive).
example(e576,f6,positive).
example(e576,f7,negative).
example(e576,f8,negative).
example(e576,f9,positive).
example(e576,f10,positive).
example(e577,f1,positive).
example(e577,f2,negative).
example(e577,f3,positive).
example(e577,f4,negative).
example(e577,f5,negative).
example(e577,f6,positive).
example(e577,f7,negative).
example(e577,f8,negative).
example(e577,f9,positive).
example(e577,f10,negative).
example(e578,f1,positive).
example(e578,f2,positive).
example(e578,f3,negative).
example(e578,f4,negative).
example(e578,f5,positive).
example(e578,f6,positive).
example(e578,f7,negative).
example(e578,f8,negative).
example(e578,f9,positive).
example(e578,f10,negative).
example(e579,f1,negative).
example(e579,f2,negative).
example(e579,f3,positive).
example(e579,f4,negative).
example(e579,f5,positive).
example(e579,f6,positive).
example(e579,f7,positive).
example(e579,f8,positive).
example(e579,f9,negative).
example(e579,f10,positive).
example(e580,f1,negative).
example(e580,f2,negative).
example(e580,f3,positive).
example(e580,f4,negative).
example(e580,f5,negative).
example(e580,f6,positive).
example(e580,f7,positive).
example(e580,f8,negative).
example(e580,f9,positive).
example(e580,f10,negative).
example(e581,f1,negative).
example(e581,f2,positive).
example(e581,f3,positive).
example(e581,f4,negative).
example(e581,f5,negative).
example(e581,f6,negative).
example(e581,f7,positive).
example(e581,f8,negative).
example(e581,f9,negative).
example(e581,f10,positive).
example(e582,f1,positive).
example(e582,f2,negative).
example(e582,f3,positive).
example(e582,f4,positive).
example(e582,f5,positive).
example(e582,f6,negative).
example(e582,f7,positive).
example(e582,f8,positive).
example(e582,f9,negative).
example(e582,f10,positive).
example(e583,f1,negative).
example(e583,f2,negative).
example(e583,f3,positive).
example(e583,f4,negative).
example(e583,f5,negative).
example(e583,f6,negative).
example(e583,f7,positive).
example(e583,f8,negative).
example(e583,f9,positive).
example(e583,f10,negative).
example(e584,f1,negative).
example(e584,f2,positive).
example(e584,f3,positive).
example(e584,f4,positive).
example(e584,f5,positive).
example(e584,f6,negative).
example(e584,f7,positive).
example(e584,f8,positive).
example(e584,f9,positive).
example(e584,f10,positive).
example(e585,f1,negative).
example(e585,f2,negative).
example(e585,f3,positive).
example(e585,f4,negative).
example(e585,f5,positive).
example(e585,f6,negative).
example(e585,f7,negative).
example(e585,f8,positive).
example(e585,f9,negative).
example(e585,f10,positive).
example(e586,f1,positive).
example(e586,f2,negative).
example(e586,f3,positive).
example(e586,f4,positive).
example(e586,f5,positive).
example(e586,f6,positive).
example(e586,f7,positive).
example(e586,f8,negative).
example(e586,f9,positive).
example(e586,f10,positive).
example(e587,f1,positive).
example(e587,f2,negative).
example(e587,f3,negative).
example(e587,f4,positive).
example(e587,f5,positive).
example(e587,f6,negative).
example(e587,f7,negative).
example(e587,f8,positive).
example(e587,f9,negative).
example(e587,f10,positive).
example(e588,f1,negative).
example(e588,f2,negative).
example(e588,f3,positive).
example(e588,f4,negative).
example(e588,f5,negative).
example(e588,f6,negative).
example(e588,f7,positive).
example(e588,f8,positive).
example(e588,f9,positive).
example(e588,f10,positive).
example(e589,f1,positive).
example(e589,f2,positive).
example(e589,f3,negative).
example(e589,f4,negative).
example(e589,f5,negative).
example(e589,f6,positive).
example(e589,f7,negative).
example(e589,f8,negative).
example(e589,f9,positive).
example(e589,f10,negative).
example(e590,f1,positive).
example(e590,f2,negative).
example(e590,f3,positive).
example(e590,f4,negative).
example(e590,f5,positive).
example(e590,f6,negative).
example(e590,f7,negative).
example(e590,f8,positive).
example(e590,f9,negative).
example(e590,f10,positive).
example(e591,f1,positive).
example(e591,f2,negative).
example(e591,f3,positive).
example(e591,f4,negative).
example(e591,f5,negative).
example(e591,f6,negative).
example(e591,f7,negative).
example(e591,f8,positive).
example(e591,f9,negative).
example(e591,f10,negative).
example(e592,f1,negative).
example(e592,f2,positive).
example(e592,f3,positive).
example(e592,f4,negative).
example(e592,f5,negative).
example(e592,f6,positive).
example(e592,f7,positive).
example(e592,f8,negative).
example(e592,f9,negative).
example(e592,f10,negative).
example(e593,f1,negative).
example(e593,f2,negative).
example(e593,f3,negative).
example(e593,f4,negative).
example(e593,f5,positive).
example(e593,f6,negative).
example(e593,f7,negative).
example(e593,f8,positive).
example(e593,f9,negative).
example(e593,f10,negative).
example(e594,f1,negative).
example(e594,f2,positive).
example(e594,f3,positive).
example(e594,f4,positive).
example(e594,f5,positive).
example(e594,f6,positive).
example(e594,f7,negative).
example(e594,f8,positive).
example(e594,f9,negative).
example(e594,f10,negative).
example(e595,f1,negative).
example(e595,f2,negative).
example(e595,f3,negative).
example(e595,f4,negative).
example(e595,f5,positive).
example(e595,f6,negative).
example(e595,f7,positive).
example(e595,f8,negative).
example(e595,f9,negative).
example(e595,f10,negative).
example(e596,f1,negative).
example(e596,f2,positive).
example(e596,f3,positive).
example(e596,f4,positive).
example(e596,f5,positive).
example(e596,f6,positive).
example(e596,f7,positive).
example(e596,f8,positive).
example(e596,f9,positive).
example(e596,f10,positive).
example(e597,f1,positive).
example(e597,f2,positive).
example(e597,f3,negative).
example(e597,f4,negative).
example(e597,f5,negative).
example(e597,f6,positive).
example(e597,f7,positive).
example(e597,f8,negative).
example(e597,f9,negative).
example(e597,f10,positive).
example(e598,f1,negative).
example(e598,f2,negative).
example(e598,f3,negative).
example(e598,f4,positive).
example(e598,f5,negative).
example(e598,f6,negative).
example(e598,f7,positive).
example(e598,f8,negative).
example(e598,f9,positive).
example(e598,f10,negative).
example(e599,f1,positive).
example(e599,f2,positive).
example(e599,f3,negative).
example(e599,f4,negative).
example(e599,f5,negative).
example(e599,f6,positive).
example(e599,f7,negative).
example(e599,f8,negative).
example(e599,f9,negative).
example(e599,f10,negative).
example(e600,f1,positive).
example(e600,f2,positive).
example(e600,f3,negative).
example(e600,f4,positive).
example(e600,f5,positive).
example(e600,f6,positive).
example(e600,f7,positive).
example(e600,f8,positive).
example(e600,f9,negative).
example(e600,f10,positive).
example(e601,f1,positive).
example(e601,f2,negative).
example(e601,f3,positive).
example(e601,f4,positive).
example(e601,f5,negative).
example(e601,f6,negative).
example(e601,f7,positive).
example(e601,f8,positive).
example(e601,f9,positive).
example(e601,f10,negative).
example(e602,f1,negative).
example(e602,f2,positive).
example(e602,f3,negative).
example(e602,f4,positive).
example(e602,f5,negative).
example(e602,f6,positive).
example(e602,f7,negative).
example(e602,f8,positive).
example(e602,f9,positive).
example(e602,f10,negative).
example(e603,f1,negative).
example(e603,f2,negative).
example(e603,f3,negative).
example(e603,f4,negative).
example(e603,f5,positive).
example(e603,f6,negative).
example(e603,f7,positive).
example(e603,f8,positive).
example(e603,f9,negative).
example(e603,f10,positive).
example(e604,f1,positive).
example(e604,f2,negative).
example(e604,f3,positive).
example(e604,f4,positive).
example(e604,f5,positive).
example(e604,f6,negative).
example(e604,f7,positive).
example(e604,f8,negative).
example(e604,f9,negative).
example(e604,f10,negative).
example(e605,f1,negative).
example(e605,f2,negative).
example(e605,f3,positive).
example(e605,f4,negative).
example(e605,f5,negative).
example(e605,f6,positive).
example(e605,f7,positive).
example(e605,f8,positive).
example(e605,f9,negative).
example(e605,f10,negative).
example(e606,f1,positive).
example(e606,f2,positive).
example(e606,f3,positive).
example(e606,f4,negative).
example(e606,f5,positive).
example(e606,f6,negative).
example(e606,f7,positive).
example(e606,f8,positive).
example(e606,f9,negative).
example(e606,f10,negative).
example(e607,f1,negative).
example(e607,f2,negative).
example(e607,f3,negative).
example(e607,f4,positive).
example(e607,f5,negative).
example(e607,f6,negative).
example(e607,f7,negative).
example(e607,f8,positive).
example(e607,f9,positive).
example(e607,f10,positive).
example(e608,f1,negative).
example(e608,f2,negative).
example(e608,f3,negative).
example(e608,f4,negative).
example(e608,f5,positive).
example(e608,f6,positive).
example(e608,f7,positive).
example(e608,f8,positive).
example(e608,f9,positive).
example(e608,f10,positive).
example(e609,f1,positive).
example(e609,f2,positive).
example(e609,f3,negative).
example(e609,f4,negative).
example(e609,f5,positive).
example(e609,f6,positive).
example(e609,f7,negative).
example(e609,f8,positive).
example(e609,f9,negative).
example(e609,f10,positive).
example(e610,f1,negative).
example(e610,f2,positive).
example(e610,f3,negative).
example(e610,f4,negative).
example(e610,f5,positive).
example(e610,f6,negative).
example(e610,f7,positive).
example(e610,f8,negative).
example(e610,f9,negative).
example(e610,f10,positive).
example(e611,f1,negative).
example(e611,f2,positive).
example(e611,f3,negative).
example(e611,f4,negative).
example(e611,f5,negative).
example(e611,f6,negative).
example(e611,f7,negative).
example(e611,f8,positive).
example(e611,f9,positive).
example(e611,f10,positive).
example(e612,f1,positive).
example(e612,f2,negative).
example(e612,f3,positive).
example(e612,f4,negative).
example(e612,f5,positive).
example(e612,f6,negative).
example(e612,f7,negative).
example(e612,f8,positive).
example(e612,f9,negative).
example(e612,f10,negative).
example(e613,f1,negative).
example(e613,f2,positive).
example(e613,f3,positive).
example(e613,f4,negative).
example(e613,f5,negative).
example(e613,f6,positive).
example(e613,f7,negative).
example(e613,f8,positive).
example(e613,f9,positive).
example(e613,f10,negative).
example(e614,f1,negative).
example(e614,f2,positive).
example(e614,f3,negative).
example(e614,f4,positive).
example(e614,f5,negative).
example(e614,f6,positive).
example(e614,f7,positive).
example(e614,f8,positive).
example(e614,f9,negative).
example(e614,f10,negative).
example(e615,f1,positive).
example(e615,f2,negative).
example(e615,f3,negative).
example(e615,f4,negative).
example(e615,f5,negative).
example(e615,f6,negative).
example(e615,f7,positive).
example(e615,f8,positive).
example(e615,f9,negative).
example(e615,f10,positive).
example(e616,f1,positive).
example(e616,f2,positive).
example(e616,f3,negative).
example(e616,f4,positive).
example(e616,f5,positive).
example(e616,f6,negative).
example(e616,f7,negative).
example(e616,f8,negative).
example(e616,f9,positive).
example(e616,f10,negative).
example(e617,f1,negative).
example(e617,f2,negative).
example(e617,f3,positive).
example(e617,f4,positive).
example(e617,f5,negative).
example(e617,f6,negative).
example(e617,f7,positive).
example(e617,f8,negative).
example(e617,f9,negative).
example(e617,f10,positive).
example(e618,f1,positive).
example(e618,f2,positive).
example(e618,f3,positive).
example(e618,f4,negative).
example(e618,f5,positive).
example(e618,f6,positive).
example(e618,f7,negative).
example(e618,f8,negative).
example(e618,f9,negative).
example(e618,f10,negative).
example(e619,f1,negative).
example(e619,f2,positive).
example(e619,f3,negative).
example(e619,f4,positive).
example(e619,f5,negative).
example(e619,f6,negative).
example(e619,f7,positive).
example(e619,f8,positive).
example(e619,f9,negative).
example(e619,f10,negative).
example(e620,f1,positive).
example(e620,f2,positive).
example(e620,f3,negative).
example(e620,f4,negative).
example(e620,f5,positive).
example(e620,f6,negative).
example(e620,f7,positive).
example(e620,f8,negative).
example(e620,f9,negative).
example(e620,f10,positive).
example(e621,f1,positive).
example(e621,f2,positive).
example(e621,f3,positive).
example(e621,f4,positive).
example(e621,f5,negative).
example(e621,f6,negative).
example(e621,f7,positive).
example(e621,f8,negative).
example(e621,f9,negative).
example(e621,f10,negative).
example(e622,f1,negative).
example(e622,f2,negative).
example(e622,f3,negative).
example(e622,f4,positive).
example(e622,f5,negative).
example(e622,f6,negative).
example(e622,f7,negative).
example(e622,f8,negative).
example(e622,f9,positive).
example(e622,f10,positive).
example(e623,f1,positive).
example(e623,f2,positive).
example(e623,f3,positive).
example(e623,f4,negative).
example(e623,f5,negative).
example(e623,f6,positive).
example(e623,f7,negative).
example(e623,f8,positive).
example(e623,f9,positive).
example(e623,f10,positive).
example(e624,f1,positive).
example(e624,f2,negative).
example(e624,f3,negative).
example(e624,f4,positive).
example(e624,f5,negative).
example(e624,f6,positive).
example(e624,f7,positive).
example(e624,f8,negative).
example(e624,f9,positive).
example(e624,f10,positive).
example(e625,f1,positive).
example(e625,f2,negative).
example(e625,f3,positive).
example(e625,f4,negative).
example(e625,f5,positive).
example(e625,f6,positive).
example(e625,f7,negative).
example(e625,f8,negative).
example(e625,f9,positive).
example(e625,f10,positive).
example(e626,f1,negative).
example(e626,f2,positive).
example(e626,f3,negative).
example(e626,f4,positive).
example(e626,f5,positive).
example(e626,f6,positive).
example(e626,f7,negative).
example(e626,f8,positive).
example(e626,f9,negative).
example(e626,f10,positive).
example(e627,f1,positive).
example(e627,f2,negative).
example(e627,f3,positive).
example(e627,f4,negative).
example(e627,f5,positive).
example(e627,f6,positive).
example(e627,f7,positive).
example(e627,f8,negative).
example(e627,f9,positive).
example(e627,f10,positive).
example(e628,f1,positive).
example(e628,f2,negative).
example(e628,f3,positive).
example(e628,f4,negative).
example(e628,f5,negative).
example(e628,f6,negative).
example(e628,f7,negative).
example(e628,f8,positive).
example(e628,f9,negative).
example(e628,f10,positive).
example(e629,f1,positive).
example(e629,f2,positive).
example(e629,f3,negative).
example(e629,f4,negative).
example(e629,f5,negative).
example(e629,f6,negative).
example(e629,f7,positive).
example(e629,f8,positive).
example(e629,f9,negative).
example(e629,f10,positive).
example(e630,f1,positive).
example(e630,f2,positive).
example(e630,f3,positive).
example(e630,f4,negative).
example(e630,f5,negative).
example(e630,f6,negative).
example(e630,f7,positive).
example(e630,f8,positive).
example(e630,f9,positive).
example(e630,f10,negative).
example(e631,f1,positive).
example(e631,f2,negative).
example(e631,f3,negative).
example(e631,f4,positive).
example(e631,f5,negative).
example(e631,f6,positive).
example(e631,f7,negative).
example(e631,f8,negative).
example(e631,f9,negative).
example(e631,f10,positive).
example(e632,f1,negative).
example(e632,f2,negative).
example(e632,f3,negative).
example(e632,f4,negative).
example(e632,f5,positive).
example(e632,f6,negative).
example(e632,f7,negative).
example(e632,f8,positive).
example(e632,f9,positive).
example(e632,f10,positive).
example(e633,f1,negative).
example(e633,f2,negative).
example(e633,f3,negative).
example(e633,f4,negative).
example(e633,f5,positive).
example(e633,f6,positive).
example(e633,f7,positive).
example(e633,f8,negative).
example(e633,f9,positive).
example(e633,f10,positive).
example(e634,f1,positive).
example(e634,f2,positive).
example(e634,f3,positive).
example(e634,f4,positive).
example(e634,f5,positive).
example(e634,f6,negative).
example(e634,f7,negative).
example(e634,f8,positive).
example(e634,f9,negative).
example(e634,f10,positive).
example(e635,f1,negative).
example(e635,f2,positive).
example(e635,f3,positive).
example(e635,f4,negative).
example(e635,f5,negative).
example(e635,f6,positive).
example(e635,f7,positive).
example(e635,f8,negative).
example(e635,f9,negative).
example(e635,f10,positive).
example(e636,f1,negative).
example(e636,f2,negative).
example(e636,f3,positive).
example(e636,f4,negative).
example(e636,f5,positive).
example(e636,f6,negative).
example(e636,f7,negative).
example(e636,f8,negative).
example(e636,f9,negative).
example(e636,f10,positive).
example(e637,f1,positive).
example(e637,f2,positive).
example(e637,f3,negative).
example(e637,f4,positive).
example(e637,f5,positive).
example(e637,f6,positive).
example(e637,f7,positive).
example(e637,f8,negative).
example(e637,f9,negative).
example(e637,f10,negative).
example(e638,f1,negative).
example(e638,f2,positive).
example(e638,f3,positive).
example(e638,f4,negative).
example(e638,f5,negative).
example(e638,f6,negative).
example(e638,f7,positive).
example(e638,f8,positive).
example(e638,f9,negative).
example(e638,f10,positive).
example(e639,f1,positive).
example(e639,f2,negative).
example(e639,f3,positive).
example(e639,f4,positive).
example(e639,f5,positive).
example(e639,f6,negative).
example(e639,f7,positive).
example(e639,f8,positive).
example(e639,f9,positive).
example(e639,f10,positive).
example(e640,f1,positive).
example(e640,f2,negative).
example(e640,f3,positive).
example(e640,f4,negative).
example(e640,f5,positive).
example(e640,f6,negative).
example(e640,f7,negative).
example(e640,f8,positive).
example(e640,f9,positive).
example(e640,f10,negative).
example(e641,f1,negative).
example(e641,f2,negative).
example(e641,f3,negative).
example(e641,f4,positive).
example(e641,f5,positive).
example(e641,f6,negative).
example(e641,f7,negative).
example(e641,f8,positive).
example(e641,f9,negative).
example(e641,f10,negative).
example(e642,f1,positive).
example(e642,f2,negative).
example(e642,f3,positive).
example(e642,f4,positive).
example(e642,f5,positive).
example(e642,f6,positive).
example(e642,f7,negative).
example(e642,f8,positive).
example(e642,f9,positive).
example(e642,f10,negative).
example(e643,f1,positive).
example(e643,f2,negative).
example(e643,f3,positive).
example(e643,f4,negative).
example(e643,f5,negative).
example(e643,f6,negative).
example(e643,f7,positive).
example(e643,f8,positive).
example(e643,f9,negative).
example(e643,f10,positive).
example(e644,f1,negative).
example(e644,f2,positive).
example(e644,f3,positive).
example(e644,f4,negative).
example(e644,f5,positive).
example(e644,f6,negative).
example(e644,f7,negative).
example(e644,f8,negative).
example(e644,f9,negative).
example(e644,f10,negative).
example(e645,f1,negative).
example(e645,f2,positive).
example(e645,f3,positive).
example(e645,f4,positive).
example(e645,f5,negative).
example(e645,f6,positive).
example(e645,f7,negative).
example(e645,f8,positive).
example(e645,f9,positive).
example(e645,f10,positive).
example(e646,f1,negative).
example(e646,f2,positive).
example(e646,f3,negative).
example(e646,f4,positive).
example(e646,f5,negative).
example(e646,f6,positive).
example(e646,f7,negative).
example(e646,f8,negative).
example(e646,f9,negative).
example(e646,f10,negative).
example(e647,f1,negative).
example(e647,f2,positive).
example(e647,f3,positive).
example(e647,f4,negative).
example(e647,f5,positive).
example(e647,f6,positive).
example(e647,f7,negative).
example(e647,f8,positive).
example(e647,f9,positive).
example(e647,f10,negative).
example(e648,f1,negative).
example(e648,f2,negative).
example(e648,f3,positive).
example(e648,f4,positive).
example(e648,f5,positive).
example(e648,f6,positive).
example(e648,f7,negative).
example(e648,f8,positive).
example(e648,f9,positive).
example(e648,f10,positive).
example(e649,f1,positive).
example(e649,f2,negative).
example(e649,f3,negative).
example(e649,f4,positive).
example(e649,f5,negative).
example(e649,f6,negative).
example(e649,f7,negative).
example(e649,f8,negative).
example(e649,f9,positive).
example(e649,f10,negative).
example(e650,f1,negative).
example(e650,f2,negative).
example(e650,f3,negative).
example(e650,f4,positive).
example(e650,f5,positive).
example(e650,f6,positive).
example(e650,f7,negative).
example(e650,f8,negative).
example(e650,f9,negative).
example(e650,f10,negative).
example(e651,f1,negative).
example(e651,f2,positive).
example(e651,f3,negative).
example(e651,f4,negative).
example(e651,f5,negative).
example(e651,f6,negative).
example(e651,f7,positive).
example(e651,f8,negative).
example(e651,f9,positive).
example(e651,f10,positive).
example(e652,f1,positive).
example(e652,f2,positive).
example(e652,f3,positive).
example(e652,f4,positive).
example(e652,f5,positive).
example(e652,f6,positive).
example(e652,f7,positive).
example(e652,f8,positive).
example(e652,f9,negative).
example(e652,f10,positive).
example(e653,f1,positive).
example(e653,f2,positive).
example(e653,f3,positive).
example(e653,f4,negative).
example(e653,f5,negative).
example(e653,f6,positive).
example(e653,f7,positive).
example(e653,f8,negative).
example(e653,f9,positive).
example(e653,f10,negative).
example(e654,f1,positive).
example(e654,f2,positive).
example(e654,f3,negative).
example(e654,f4,positive).
example(e654,f5,negative).
example(e654,f6,negative).
example(e654,f7,negative).
example(e654,f8,negative).
example(e654,f9,negative).
example(e654,f10,positive).
example(e655,f1,negative).
example(e655,f2,positive).
example(e655,f3,positive).
example(e655,f4,negative).
example(e655,f5,positive).
example(e655,f6,positive).
example(e655,f7,positive).
example(e655,f8,positive).
example(e655,f9,positive).
example(e655,f10,negative).
example(e656,f1,positive).
example(e656,f2,negative).
example(e656,f3,negative).
example(e656,f4,negative).
example(e656,f5,negative).
example(e656,f6,positive).
example(e656,f7,positive).
example(e656,f8,negative).
example(e656,f9,positive).
example(e656,f10,negative).
example(e657,f1,positive).
example(e657,f2,negative).
example(e657,f3,negative).
example(e657,f4,negative).
example(e657,f5,negative).
example(e657,f6,positive).
example(e657,f7,positive).
example(e657,f8,positive).
example(e657,f9,negative).
example(e657,f10,positive).
example(e658,f1,positive).
example(e658,f2,positive).
example(e658,f3,positive).
example(e658,f4,negative).
example(e658,f5,negative).
example(e658,f6,positive).
example(e658,f7,positive).
example(e658,f8,positive).
example(e658,f9,negative).
example(e658,f10,negative).
example(e659,f1,positive).
example(e659,f2,positive).
example(e659,f3,negative).
example(e659,f4,positive).
example(e659,f5,positive).
example(e659,f6,negative).
example(e659,f7,negative).
example(e659,f8,positive).
example(e659,f9,negative).
example(e659,f10,positive).
example(e660,f1,positive).
example(e660,f2,negative).
example(e660,f3,negative).
example(e660,f4,negative).
example(e660,f5,positive).
example(e660,f6,positive).
example(e660,f7,negative).
example(e660,f8,positive).
example(e660,f9,positive).
example(e660,f10,negative).
example(e661,f1,positive).
example(e661,f2,positive).
example(e661,f3,negative).
example(e661,f4,positive).
example(e661,f5,positive).
example(e661,f6,negative).
example(e661,f7,positive).
example(e661,f8,negative).
example(e661,f9,positive).
example(e661,f10,positive).
example(e662,f1,positive).
example(e662,f2,negative).
example(e662,f3,negative).
example(e662,f4,positive).
example(e662,f5,negative).
example(e662,f6,negative).
example(e662,f7,negative).
example(e662,f8,positive).
example(e662,f9,negative).
example(e662,f10,negative).
example(e663,f1,negative).
example(e663,f2,negative).
example(e663,f3,negative).
example(e663,f4,positive).
example(e663,f5,negative).
example(e663,f6,positive).
example(e663,f7,negative).
example(e663,f8,positive).
example(e663,f9,negative).
example(e663,f10,negative).
example(e664,f1,negative).
example(e664,f2,negative).
example(e664,f3,positive).
example(e664,f4,positive).
example(e664,f5,positive).
example(e664,f6,negative).
example(e664,f7,positive).
example(e664,f8,positive).
example(e664,f9,negative).
example(e664,f10,positive).
example(e665,f1,negative).
example(e665,f2,negative).
example(e665,f3,positive).
example(e665,f4,positive).
example(e665,f5,positive).
example(e665,f6,positive).
example(e665,f7,negative).
example(e665,f8,negative).
example(e665,f9,negative).
example(e665,f10,positive).
example(e666,f1,negative).
example(e666,f2,negative).
example(e666,f3,positive).
example(e666,f4,positive).
example(e666,f5,negative).
example(e666,f6,positive).
example(e666,f7,negative).
example(e666,f8,negative).
example(e666,f9,positive).
example(e666,f10,positive).
example(e667,f1,positive).
example(e667,f2,negative).
example(e667,f3,positive).
example(e667,f4,negative).
example(e667,f5,negative).
example(e667,f6,positive).
example(e667,f7,positive).
example(e667,f8,positive).
example(e667,f9,negative).
example(e667,f10,negative).
example(e668,f1,positive).
example(e668,f2,positive).
example(e668,f3,positive).
example(e668,f4,negative).
example(e668,f5,negative).
example(e668,f6,negative).
example(e668,f7,positive).
example(e668,f8,negative).
example(e668,f9,positive).
example(e668,f10,positive).
example(e669,f1,negative).
example(e669,f2,positive).
example(e669,f3,positive).
example(e669,f4,negative).
example(e669,f5,negative).
example(e669,f6,positive).
example(e669,f7,positive).
example(e669,f8,positive).
example(e669,f9,negative).
example(e669,f10,positive).
example(e670,f1,positive).
example(e670,f2,negative).
example(e670,f3,positive).
example(e670,f4,positive).
example(e670,f5,negative).
example(e670,f6,positive).
example(e670,f7,positive).
example(e670,f8,negative).
example(e670,f9,positive).
example(e670,f10,positive).
example(e671,f1,positive).
example(e671,f2,positive).
example(e671,f3,positive).
example(e671,f4,positive).
example(e671,f5,positive).
example(e671,f6,positive).
example(e671,f7,negative).
example(e671,f8,positive).
example(e671,f9,positive).
example(e671,f10,positive).
example(e672,f1,negative).
example(e672,f2,positive).
example(e672,f3,positive).
example(e672,f4,positive).
example(e672,f5,negative).
example(e672,f6,negative).
example(e672,f7,positive).
example(e672,f8,negative).
example(e672,f9,negative).
example(e672,f10,negative).
example(e673,f1,negative).
example(e673,f2,positive).
example(e673,f3,negative).
example(e673,f4,negative).
example(e673,f5,positive).
example(e673,f6,positive).
example(e673,f7,negative).
example(e673,f8,negative).
example(e673,f9,negative).
example(e673,f10,positive).
example(e674,f1,negative).
example(e674,f2,positive).
example(e674,f3,positive).
example(e674,f4,negative).
example(e674,f5,negative).
example(e674,f6,negative).
example(e674,f7,positive).
example(e674,f8,positive).
example(e674,f9,positive).
example(e674,f10,positive).
example(e675,f1,positive).
example(e675,f2,negative).
example(e675,f3,positive).
example(e675,f4,positive).
example(e675,f5,positive).
example(e675,f6,positive).
example(e675,f7,negative).
example(e675,f8,negative).
example(e675,f9,positive).
example(e675,f10,positive).
example(e676,f1,positive).
example(e676,f2,positive).
example(e676,f3,negative).
example(e676,f4,positive).
example(e676,f5,negative).
example(e676,f6,negative).
example(e676,f7,positive).
example(e676,f8,negative).
example(e676,f9,negative).
example(e676,f10,positive).
example(e677,f1,negative).
example(e677,f2,negative).
example(e677,f3,positive).
example(e677,f4,negative).
example(e677,f5,positive).
example(e677,f6,positive).
example(e677,f7,positive).
example(e677,f8,positive).
example(e677,f9,positive).
example(e677,f10,negative).
example(e678,f1,positive).
example(e678,f2,negative).
example(e678,f3,negative).
example(e678,f4,negative).
example(e678,f5,negative).
example(e678,f6,negative).
example(e678,f7,negative).
example(e678,f8,negative).
example(e678,f9,negative).
example(e678,f10,negative).
example(e679,f1,negative).
example(e679,f2,negative).
example(e679,f3,positive).
example(e679,f4,negative).
example(e679,f5,negative).
example(e679,f6,positive).
example(e679,f7,positive).
example(e679,f8,negative).
example(e679,f9,negative).
example(e679,f10,positive).
example(e680,f1,negative).
example(e680,f2,positive).
example(e680,f3,positive).
example(e680,f4,negative).
example(e680,f5,positive).
example(e680,f6,positive).
example(e680,f7,positive).
example(e680,f8,positive).
example(e680,f9,negative).
example(e680,f10,positive).
example(e681,f1,positive).
example(e681,f2,positive).
example(e681,f3,negative).
example(e681,f4,negative).
example(e681,f5,negative).
example(e681,f6,positive).
example(e681,f7,positive).
example(e681,f8,positive).
example(e681,f9,negative).
example(e681,f10,positive).
example(e682,f1,positive).
example(e682,f2,positive).
example(e682,f3,positive).
example(e682,f4,negative).
example(e682,f5,negative).
example(e682,f6,negative).
example(e682,f7,positive).
example(e682,f8,positive).
example(e682,f9,negative).
example(e682,f10,positive).
example(e683,f1,negative).
example(e683,f2,negative).
example(e683,f3,positive).
example(e683,f4,negative).
example(e683,f5,negative).
example(e683,f6,positive).
example(e683,f7,negative).
example(e683,f8,negative).
example(e683,f9,negative).
example(e683,f10,negative).
example(e684,f1,positive).
example(e684,f2,positive).
example(e684,f3,negative).
example(e684,f4,negative).
example(e684,f5,negative).
example(e684,f6,positive).
example(e684,f7,negative).
example(e684,f8,negative).
example(e684,f9,negative).
example(e684,f10,positive).
example(e685,f1,positive).
example(e685,f2,negative).
example(e685,f3,negative).
example(e685,f4,negative).
example(e685,f5,negative).
example(e685,f6,negative).
example(e685,f7,negative).
example(e685,f8,positive).
example(e685,f9,negative).
example(e685,f10,positive).
example(e686,f1,positive).
example(e686,f2,positive).
example(e686,f3,positive).
example(e686,f4,negative).
example(e686,f5,positive).
example(e686,f6,positive).
example(e686,f7,positive).
example(e686,f8,negative).
example(e686,f9,positive).
example(e686,f10,negative).
example(e687,f1,negative).
example(e687,f2,negative).
example(e687,f3,negative).
example(e687,f4,positive).
example(e687,f5,negative).
example(e687,f6,negative).
example(e687,f7,negative).
example(e687,f8,negative).
example(e687,f9,negative).
example(e687,f10,negative).
example(e688,f1,negative).
example(e688,f2,positive).
example(e688,f3,positive).
example(e688,f4,positive).
example(e688,f5,negative).
example(e688,f6,negative).
example(e688,f7,positive).
example(e688,f8,positive).
example(e688,f9,negative).
example(e688,f10,negative).
example(e689,f1,positive).
example(e689,f2,positive).
example(e689,f3,negative).
example(e689,f4,negative).
example(e689,f5,positive).
example(e689,f6,negative).
example(e689,f7,negative).
example(e689,f8,negative).
example(e689,f9,negative).
example(e689,f10,positive).
example(e690,f1,negative).
example(e690,f2,positive).
example(e690,f3,positive).
example(e690,f4,negative).
example(e690,f5,positive).
example(e690,f6,positive).
example(e690,f7,negative).
example(e690,f8,positive).
example(e690,f9,negative).
example(e690,f10,negative).
example(e691,f1,negative).
example(e691,f2,positive).
example(e691,f3,negative).
example(e691,f4,negative).
example(e691,f5,positive).
example(e691,f6,negative).
example(e691,f7,negative).
example(e691,f8,negative).
example(e691,f9,negative).
example(e691,f10,negative).
example(e692,f1,negative).
example(e692,f2,positive).
example(e692,f3,positive).
example(e692,f4,positive).
example(e692,f5,positive).
example(e692,f6,positive).
example(e692,f7,negative).
example(e692,f8,positive).
example(e692,f9,positive).
example(e692,f10,negative).
example(e693,f1,positive).
example(e693,f2,negative).
example(e693,f3,positive).
example(e693,f4,positive).
example(e693,f5,positive).
example(e693,f6,negative).
example(e693,f7,positive).
example(e693,f8,negative).
example(e693,f9,positive).
example(e693,f10,negative).
example(e694,f1,negative).
example(e694,f2,positive).
example(e694,f3,negative).
example(e694,f4,negative).
example(e694,f5,positive).
example(e694,f6,negative).
example(e694,f7,negative).
example(e694,f8,negative).
example(e694,f9,positive).
example(e694,f10,negative).
example(e695,f1,positive).
example(e695,f2,negative).
example(e695,f3,positive).
example(e695,f4,positive).
example(e695,f5,positive).
example(e695,f6,positive).
example(e695,f7,positive).
example(e695,f8,negative).
example(e695,f9,negative).
example(e695,f10,negative).
example(e696,f1,negative).
example(e696,f2,positive).
example(e696,f3,positive).
example(e696,f4,positive).
example(e696,f5,positive).
example(e696,f6,negative).
example(e696,f7,negative).
example(e696,f8,positive).
example(e696,f9,negative).
example(e696,f10,positive).
example(e697,f1,positive).
example(e697,f2,positive).
example(e697,f3,positive).
example(e697,f4,negative).
example(e697,f5,positive).
example(e697,f6,negative).
example(e697,f7,positive).
example(e697,f8,positive).
example(e697,f9,positive).
example(e697,f10,positive).
example(e698,f1,negative).
example(e698,f2,negative).
example(e698,f3,negative).
example(e698,f4,positive).
example(e698,f5,positive).
example(e698,f6,negative).
example(e698,f7,negative).
example(e698,f8,positive).
example(e698,f9,negative).
example(e698,f10,positive).
example(e699,f1,negative).
example(e699,f2,negative).
example(e699,f3,negative).
example(e699,f4,negative).
example(e699,f5,negative).
example(e699,f6,negative).
example(e699,f7,positive).
example(e699,f8,positive).
example(e699,f9,positive).
example(e699,f10,positive).
example(e700,f1,positive).
example(e700,f2,positive).
example(e700,f3,positive).
example(e700,f4,positive).
example(e700,f5,negative).
example(e700,f6,negative).
example(e700,f7,negative).
example(e700,f8,negative).
example(e700,f9,negative).
example(e700,f10,negative).
example(e701,f1,positive).
example(e701,f2,negative).
example(e701,f3,negative).
example(e701,f4,positive).
example(e701,f5,positive).
example(e701,f6,negative).
example(e701,f7,positive).
example(e701,f8,negative).
example(e701,f9,positive).
example(e701,f10,negative).
example(e702,f1,negative).
example(e702,f2,negative).
example(e702,f3,positive).
example(e702,f4,positive).
example(e702,f5,positive).
example(e702,f6,positive).
example(e702,f7,positive).
example(e702,f8,negative).
example(e702,f9,positive).
example(e702,f10,negative).
example(e703,f1,negative).
example(e703,f2,positive).
example(e703,f3,negative).
example(e703,f4,negative).
example(e703,f5,positive).
example(e703,f6,positive).
example(e703,f7,negative).
example(e703,f8,negative).
example(e703,f9,positive).
example(e703,f10,positive).
example(e704,f1,negative).
example(e704,f2,negative).
example(e704,f3,positive).
example(e704,f4,positive).
example(e704,f5,negative).
example(e704,f6,negative).
example(e704,f7,negative).
example(e704,f8,negative).
example(e704,f9,positive).
example(e704,f10,positive).
example(e705,f1,negative).
example(e705,f2,positive).
example(e705,f3,positive).
example(e705,f4,positive).
example(e705,f5,positive).
example(e705,f6,negative).
example(e705,f7,negative).
example(e705,f8,negative).
example(e705,f9,positive).
example(e705,f10,positive).
example(e706,f1,positive).
example(e706,f2,positive).
example(e706,f3,positive).
example(e706,f4,positive).
example(e706,f5,positive).
example(e706,f6,positive).
example(e706,f7,positive).
example(e706,f8,negative).
example(e706,f9,negative).
example(e706,f10,positive).
example(e707,f1,negative).
example(e707,f2,positive).
example(e707,f3,positive).
example(e707,f4,negative).
example(e707,f5,positive).
example(e707,f6,positive).
example(e707,f7,negative).
example(e707,f8,positive).
example(e707,f9,negative).
example(e707,f10,positive).
example(e708,f1,negative).
example(e708,f2,positive).
example(e708,f3,positive).
example(e708,f4,positive).
example(e708,f5,negative).
example(e708,f6,positive).
example(e708,f7,positive).
example(e708,f8,positive).
example(e708,f9,negative).
example(e708,f10,negative).
example(e709,f1,negative).
example(e709,f2,positive).
example(e709,f3,positive).
example(e709,f4,positive).
example(e709,f5,positive).
example(e709,f6,negative).
example(e709,f7,positive).
example(e709,f8,positive).
example(e709,f9,negative).
example(e709,f10,positive).
example(e710,f1,positive).
example(e710,f2,positive).
example(e710,f3,positive).
example(e710,f4,positive).
example(e710,f5,positive).
example(e710,f6,negative).
example(e710,f7,positive).
example(e710,f8,negative).
example(e710,f9,negative).
example(e710,f10,positive).
example(e711,f1,positive).
example(e711,f2,positive).
example(e711,f3,negative).
example(e711,f4,negative).
example(e711,f5,negative).
example(e711,f6,positive).
example(e711,f7,positive).
example(e711,f8,negative).
example(e711,f9,positive).
example(e711,f10,positive).
example(e712,f1,positive).
example(e712,f2,negative).
example(e712,f3,positive).
example(e712,f4,negative).
example(e712,f5,negative).
example(e712,f6,negative).
example(e712,f7,positive).
example(e712,f8,negative).
example(e712,f9,negative).
example(e712,f10,negative).
example(e713,f1,positive).
example(e713,f2,negative).
example(e713,f3,positive).
example(e713,f4,positive).
example(e713,f5,positive).
example(e713,f6,negative).
example(e713,f7,negative).
example(e713,f8,positive).
example(e713,f9,positive).
example(e713,f10,negative).
example(e714,f1,positive).
example(e714,f2,negative).
example(e714,f3,positive).
example(e714,f4,negative).
example(e714,f5,negative).
example(e714,f6,negative).
example(e714,f7,positive).
example(e714,f8,negative).
example(e714,f9,negative).
example(e714,f10,positive).
example(e715,f1,positive).
example(e715,f2,positive).
example(e715,f3,negative).
example(e715,f4,positive).
example(e715,f5,positive).
example(e715,f6,positive).
example(e715,f7,positive).
example(e715,f8,negative).
example(e715,f9,negative).
example(e715,f10,positive).
example(e716,f1,negative).
example(e716,f2,negative).
example(e716,f3,positive).
example(e716,f4,negative).
example(e716,f5,negative).
example(e716,f6,negative).
example(e716,f7,positive).
example(e716,f8,negative).
example(e716,f9,positive).
example(e716,f10,positive).
example(e717,f1,negative).
example(e717,f2,positive).
example(e717,f3,negative).
example(e717,f4,positive).
example(e717,f5,positive).
example(e717,f6,positive).
example(e717,f7,positive).
example(e717,f8,positive).
example(e717,f9,positive).
example(e717,f10,negative).
example(e718,f1,positive).
example(e718,f2,negative).
example(e718,f3,positive).
example(e718,f4,positive).
example(e718,f5,negative).
example(e718,f6,positive).
example(e718,f7,negative).
example(e718,f8,positive).
example(e718,f9,negative).
example(e718,f10,negative).
example(e719,f1,positive).
example(e719,f2,negative).
example(e719,f3,positive).
example(e719,f4,negative).
example(e719,f5,positive).
example(e719,f6,negative).
example(e719,f7,negative).
example(e719,f8,negative).
example(e719,f9,positive).
example(e719,f10,positive).
example(e720,f1,positive).
example(e720,f2,positive).
example(e720,f3,negative).
example(e720,f4,positive).
example(e720,f5,negative).
example(e720,f6,positive).
example(e720,f7,positive).
example(e720,f8,negative).
example(e720,f9,positive).
example(e720,f10,positive).
example(e721,f1,negative).
example(e721,f2,negative).
example(e721,f3,positive).
example(e721,f4,positive).
example(e721,f5,positive).
example(e721,f6,positive).
example(e721,f7,negative).
example(e721,f8,positive).
example(e721,f9,negative).
example(e721,f10,negative).
example(e722,f1,positive).
example(e722,f2,negative).
example(e722,f3,positive).
example(e722,f4,positive).
example(e722,f5,negative).
example(e722,f6,positive).
example(e722,f7,positive).
example(e722,f8,negative).
example(e722,f9,positive).
example(e722,f10,negative).
example(e723,f1,negative).
example(e723,f2,negative).
example(e723,f3,positive).
example(e723,f4,negative).
example(e723,f5,negative).
example(e723,f6,positive).
example(e723,f7,negative).
example(e723,f8,negative).
example(e723,f9,negative).
example(e723,f10,positive).
example(e724,f1,positive).
example(e724,f2,negative).
example(e724,f3,negative).
example(e724,f4,positive).
example(e724,f5,negative).
example(e724,f6,positive).
example(e724,f7,negative).
example(e724,f8,positive).
example(e724,f9,positive).
example(e724,f10,positive).
example(e725,f1,positive).
example(e725,f2,negative).
example(e725,f3,positive).
example(e725,f4,positive).
example(e725,f5,positive).
example(e725,f6,negative).
example(e725,f7,negative).
example(e725,f8,positive).
example(e725,f9,positive).
example(e725,f10,positive).
example(e726,f1,positive).
example(e726,f2,negative).
example(e726,f3,negative).
example(e726,f4,negative).
example(e726,f5,negative).
example(e726,f6,positive).
example(e726,f7,negative).
example(e726,f8,positive).
example(e726,f9,positive).
example(e726,f10,positive).
example(e727,f1,positive).
example(e727,f2,negative).
example(e727,f3,negative).
example(e727,f4,negative).
example(e727,f5,negative).
example(e727,f6,positive).
example(e727,f7,positive).
example(e727,f8,positive).
example(e727,f9,negative).
example(e727,f10,negative).
example(e728,f1,negative).
example(e728,f2,positive).
example(e728,f3,positive).
example(e728,f4,negative).
example(e728,f5,positive).
example(e728,f6,positive).
example(e728,f7,positive).
example(e728,f8,negative).
example(e728,f9,positive).
example(e728,f10,negative).
example(e729,f1,positive).
example(e729,f2,positive).
example(e729,f3,positive).
example(e729,f4,negative).
example(e729,f5,positive).
example(e729,f6,negative).
example(e729,f7,positive).
example(e729,f8,negative).
example(e729,f9,negative).
example(e729,f10,positive).
example(e730,f1,positive).
example(e730,f2,positive).
example(e730,f3,positive).
example(e730,f4,positive).
example(e730,f5,positive).
example(e730,f6,positive).
example(e730,f7,negative).
example(e730,f8,negative).
example(e730,f9,positive).
example(e730,f10,negative).
example(e731,f1,negative).
example(e731,f2,positive).
example(e731,f3,negative).
example(e731,f4,positive).
example(e731,f5,positive).
example(e731,f6,negative).
example(e731,f7,positive).
example(e731,f8,negative).
example(e731,f9,positive).
example(e731,f10,negative).
example(e732,f1,positive).
example(e732,f2,negative).
example(e732,f3,positive).
example(e732,f4,positive).
example(e732,f5,positive).
example(e732,f6,negative).
example(e732,f7,negative).
example(e732,f8,negative).
example(e732,f9,negative).
example(e732,f10,negative).
example(e733,f1,negative).
example(e733,f2,negative).
example(e733,f3,negative).
example(e733,f4,positive).
example(e733,f5,positive).
example(e733,f6,positive).
example(e733,f7,negative).
example(e733,f8,positive).
example(e733,f9,positive).
example(e733,f10,negative).
example(e734,f1,positive).
example(e734,f2,positive).
example(e734,f3,negative).
example(e734,f4,positive).
example(e734,f5,positive).
example(e734,f6,positive).
example(e734,f7,positive).
example(e734,f8,negative).
example(e734,f9,positive).
example(e734,f10,positive).
example(e735,f1,positive).
example(e735,f2,negative).
example(e735,f3,positive).
example(e735,f4,positive).
example(e735,f5,negative).
example(e735,f6,negative).
example(e735,f7,positive).
example(e735,f8,negative).
example(e735,f9,positive).
example(e735,f10,positive).
example(e736,f1,positive).
example(e736,f2,positive).
example(e736,f3,positive).
example(e736,f4,negative).
example(e736,f5,negative).
example(e736,f6,negative).
example(e736,f7,negative).
example(e736,f8,negative).
example(e736,f9,positive).
example(e736,f10,positive).
example(e737,f1,positive).
example(e737,f2,negative).
example(e737,f3,negative).
example(e737,f4,positive).
example(e737,f5,negative).
example(e737,f6,positive).
example(e737,f7,negative).
example(e737,f8,negative).
example(e737,f9,positive).
example(e737,f10,positive).
example(e738,f1,positive).
example(e738,f2,negative).
example(e738,f3,negative).
example(e738,f4,positive).
example(e738,f5,positive).
example(e738,f6,positive).
example(e738,f7,negative).
example(e738,f8,negative).
example(e738,f9,negative).
example(e738,f10,negative).
example(e739,f1,negative).
example(e739,f2,negative).
example(e739,f3,positive).
example(e739,f4,positive).
example(e739,f5,negative).
example(e739,f6,positive).
example(e739,f7,negative).
example(e739,f8,negative).
example(e739,f9,negative).
example(e739,f10,positive).
example(e740,f1,positive).
example(e740,f2,positive).
example(e740,f3,positive).
example(e740,f4,positive).
example(e740,f5,negative).
example(e740,f6,positive).
example(e740,f7,negative).
example(e740,f8,positive).
example(e740,f9,negative).
example(e740,f10,negative).
example(e741,f1,negative).
example(e741,f2,negative).
example(e741,f3,negative).
example(e741,f4,negative).
example(e741,f5,positive).
example(e741,f6,positive).
example(e741,f7,negative).
example(e741,f8,negative).
example(e741,f9,positive).
example(e741,f10,negative).
example(e742,f1,positive).
example(e742,f2,positive).
example(e742,f3,negative).
example(e742,f4,positive).
example(e742,f5,positive).
example(e742,f6,positive).
example(e742,f7,positive).
example(e742,f8,positive).
example(e742,f9,negative).
example(e742,f10,negative).
example(e743,f1,negative).
example(e743,f2,positive).
example(e743,f3,positive).
example(e743,f4,negative).
example(e743,f5,positive).
example(e743,f6,negative).
example(e743,f7,positive).
example(e743,f8,negative).
example(e743,f9,negative).
example(e743,f10,negative).
example(e744,f1,positive).
example(e744,f2,positive).
example(e744,f3,negative).
example(e744,f4,negative).
example(e744,f5,positive).
example(e744,f6,positive).
example(e744,f7,positive).
example(e744,f8,negative).
example(e744,f9,negative).
example(e744,f10,negative).
example(e745,f1,positive).
example(e745,f2,positive).
example(e745,f3,negative).
example(e745,f4,positive).
example(e745,f5,negative).
example(e745,f6,positive).
example(e745,f7,positive).
example(e745,f8,positive).
example(e745,f9,negative).
example(e745,f10,positive).
example(e746,f1,negative).
example(e746,f2,negative).
example(e746,f3,positive).
example(e746,f4,negative).
example(e746,f5,positive).
example(e746,f6,positive).
example(e746,f7,negative).
example(e746,f8,positive).
example(e746,f9,negative).
example(e746,f10,positive).
example(e747,f1,positive).
example(e747,f2,negative).
example(e747,f3,negative).
example(e747,f4,negative).
example(e747,f5,positive).
example(e747,f6,negative).
example(e747,f7,positive).
example(e747,f8,negative).
example(e747,f9,positive).
example(e747,f10,positive).
example(e748,f1,negative).
example(e748,f2,negative).
example(e748,f3,negative).
example(e748,f4,negative).
example(e748,f5,negative).
example(e748,f6,negative).
example(e748,f7,negative).
example(e748,f8,positive).
example(e748,f9,positive).
example(e748,f10,negative).
example(e749,f1,positive).
example(e749,f2,negative).
example(e749,f3,negative).
example(e749,f4,negative).
example(e749,f5,positive).
example(e749,f6,positive).
example(e749,f7,positive).
example(e749,f8,positive).
example(e749,f9,negative).
example(e749,f10,negative).
example(e750,f1,positive).
example(e750,f2,positive).
example(e750,f3,positive).
example(e750,f4,positive).
example(e750,f5,negative).
example(e750,f6,positive).
example(e750,f7,positive).
example(e750,f8,negative).
example(e750,f9,positive).
example(e750,f10,positive).
example(e751,f1,positive).
example(e751,f2,negative).
example(e751,f3,positive).
example(e751,f4,negative).
example(e751,f5,positive).
example(e751,f6,negative).
example(e751,f7,positive).
example(e751,f8,positive).
example(e751,f9,positive).
example(e751,f10,negative).
example(e752,f1,positive).
example(e752,f2,positive).
example(e752,f3,negative).
example(e752,f4,negative).
example(e752,f5,negative).
example(e752,f6,positive).
example(e752,f7,negative).
example(e752,f8,positive).
example(e752,f9,positive).
example(e752,f10,positive).
example(e753,f1,negative).
example(e753,f2,negative).
example(e753,f3,negative).
example(e753,f4,negative).
example(e753,f5,positive).
example(e753,f6,negative).
example(e753,f7,positive).
example(e753,f8,positive).
example(e753,f9,positive).
example(e753,f10,negative).
example(e754,f1,negative).
example(e754,f2,negative).
example(e754,f3,positive).
example(e754,f4,negative).
example(e754,f5,negative).
example(e754,f6,negative).
example(e754,f7,negative).
example(e754,f8,negative).
example(e754,f9,negative).
example(e754,f10,positive).
example(e755,f1,negative).
example(e755,f2,positive).
example(e755,f3,negative).
example(e755,f4,negative).
example(e755,f5,negative).
example(e755,f6,negative).
example(e755,f7,negative).
example(e755,f8,negative).
example(e755,f9,positive).
example(e755,f10,positive).
example(e756,f1,positive).
example(e756,f2,negative).
example(e756,f3,negative).
example(e756,f4,negative).
example(e756,f5,positive).
example(e756,f6,positive).
example(e756,f7,negative).
example(e756,f8,negative).
example(e756,f9,negative).
example(e756,f10,negative).
example(e757,f1,positive).
example(e757,f2,positive).
example(e757,f3,positive).
example(e757,f4,negative).
example(e757,f5,negative).
example(e757,f6,negative).
example(e757,f7,negative).
example(e757,f8,positive).
example(e757,f9,positive).
example(e757,f10,positive).
example(e758,f1,negative).
example(e758,f2,positive).
example(e758,f3,positive).
example(e758,f4,positive).
example(e758,f5,negative).
example(e758,f6,positive).
example(e758,f7,positive).
example(e758,f8,negative).
example(e758,f9,negative).
example(e758,f10,positive).
example(e759,f1,negative).
example(e759,f2,negative).
example(e759,f3,negative).
example(e759,f4,negative).
example(e759,f5,negative).
example(e759,f6,positive).
example(e759,f7,negative).
example(e759,f8,negative).
example(e759,f9,positive).
example(e759,f10,positive).
example(e760,f1,negative).
example(e760,f2,positive).
example(e760,f3,positive).
example(e760,f4,positive).
example(e760,f5,negative).
example(e760,f6,positive).
example(e760,f7,negative).
example(e760,f8,positive).
example(e760,f9,negative).
example(e760,f10,positive).
example(e761,f1,positive).
example(e761,f2,positive).
example(e761,f3,positive).
example(e761,f4,positive).
example(e761,f5,positive).
example(e761,f6,negative).
example(e761,f7,positive).
example(e761,f8,negative).
example(e761,f9,positive).
example(e761,f10,positive).
example(e762,f1,positive).
example(e762,f2,negative).
example(e762,f3,negative).
example(e762,f4,negative).
example(e762,f5,positive).
example(e762,f6,negative).
example(e762,f7,negative).
example(e762,f8,positive).
example(e762,f9,positive).
example(e762,f10,negative).
example(e763,f1,negative).
example(e763,f2,negative).
example(e763,f3,negative).
example(e763,f4,negative).
example(e763,f5,negative).
example(e763,f6,positive).
example(e763,f7,positive).
example(e763,f8,negative).
example(e763,f9,positive).
example(e763,f10,positive).
example(e764,f1,positive).
example(e764,f2,negative).
example(e764,f3,positive).
example(e764,f4,negative).
example(e764,f5,negative).
example(e764,f6,positive).
example(e764,f7,positive).
example(e764,f8,positive).
example(e764,f9,negative).
example(e764,f10,positive).
example(e765,f1,negative).
example(e765,f2,negative).
example(e765,f3,positive).
example(e765,f4,negative).
example(e765,f5,negative).
example(e765,f6,negative).
example(e765,f7,negative).
example(e765,f8,negative).
example(e765,f9,positive).
example(e765,f10,positive).
example(e766,f1,negative).
example(e766,f2,negative).
example(e766,f3,positive).
example(e766,f4,negative).
example(e766,f5,positive).
example(e766,f6,positive).
example(e766,f7,negative).
example(e766,f8,positive).
example(e766,f9,positive).
example(e766,f10,negative).
example(e767,f1,negative).
example(e767,f2,negative).
example(e767,f3,negative).
example(e767,f4,negative).
example(e767,f5,negative).
example(e767,f6,negative).
example(e767,f7,negative).
example(e767,f8,negative).
example(e767,f9,negative).
example(e767,f10,positive).
example(e768,f1,positive).
example(e768,f2,negative).
example(e768,f3,negative).
example(e768,f4,positive).
example(e768,f5,negative).
example(e768,f6,negative).
example(e768,f7,negative).
example(e768,f8,negative).
example(e768,f9,positive).
example(e768,f10,positive).
example(e769,f1,positive).
example(e769,f2,positive).
example(e769,f3,negative).
example(e769,f4,positive).
example(e769,f5,positive).
example(e769,f6,negative).
example(e769,f7,positive).
example(e769,f8,negative).
example(e769,f9,positive).
example(e769,f10,negative).
example(e770,f1,negative).
example(e770,f2,negative).
example(e770,f3,negative).
example(e770,f4,negative).
example(e770,f5,negative).
example(e770,f6,positive).
example(e770,f7,negative).
example(e770,f8,positive).
example(e770,f9,positive).
example(e770,f10,positive).
example(e771,f1,negative).
example(e771,f2,negative).
example(e771,f3,negative).
example(e771,f4,negative).
example(e771,f5,negative).
example(e771,f6,negative).
example(e771,f7,negative).
example(e771,f8,negative).
example(e771,f9,negative).
example(e771,f10,negative).
example(e772,f1,negative).
example(e772,f2,positive).
example(e772,f3,negative).
example(e772,f4,negative).
example(e772,f5,positive).
example(e772,f6,positive).
example(e772,f7,positive).
example(e772,f8,positive).
example(e772,f9,positive).
example(e772,f10,positive).
example(e773,f1,positive).
example(e773,f2,negative).
example(e773,f3,negative).
example(e773,f4,positive).
example(e773,f5,positive).
example(e773,f6,negative).
example(e773,f7,negative).
example(e773,f8,negative).
example(e773,f9,positive).
example(e773,f10,positive).
example(e774,f1,positive).
example(e774,f2,positive).
example(e774,f3,negative).
example(e774,f4,positive).
example(e774,f5,positive).
example(e774,f6,positive).
example(e774,f7,negative).
example(e774,f8,positive).
example(e774,f9,negative).
example(e774,f10,negative).
example(e775,f1,negative).
example(e775,f2,negative).
example(e775,f3,positive).
example(e775,f4,negative).
example(e775,f5,positive).
example(e775,f6,positive).
example(e775,f7,negative).
example(e775,f8,positive).
example(e775,f9,negative).
example(e775,f10,negative).
example(e776,f1,negative).
example(e776,f2,positive).
example(e776,f3,negative).
example(e776,f4,negative).
example(e776,f5,negative).
example(e776,f6,positive).
example(e776,f7,positive).
example(e776,f8,negative).
example(e776,f9,positive).
example(e776,f10,positive).
example(e777,f1,negative).
example(e777,f2,negative).
example(e777,f3,negative).
example(e777,f4,positive).
example(e777,f5,negative).
example(e777,f6,negative).
example(e777,f7,negative).
example(e777,f8,negative).
example(e777,f9,positive).
example(e777,f10,negative).
example(e778,f1,positive).
example(e778,f2,positive).
example(e778,f3,positive).
example(e778,f4,positive).
example(e778,f5,negative).
example(e778,f6,negative).
example(e778,f7,positive).
example(e778,f8,positive).
example(e778,f9,positive).
example(e778,f10,negative).
example(e779,f1,negative).
example(e779,f2,positive).
example(e779,f3,positive).
example(e779,f4,negative).
example(e779,f5,negative).
example(e779,f6,positive).
example(e779,f7,negative).
example(e779,f8,negative).
example(e779,f9,positive).
example(e779,f10,negative).
example(e780,f1,negative).
example(e780,f2,negative).
example(e780,f3,positive).
example(e780,f4,positive).
example(e780,f5,negative).
example(e780,f6,negative).
example(e780,f7,negative).
example(e780,f8,negative).
example(e780,f9,positive).
example(e780,f10,negative).
example(e781,f1,negative).
example(e781,f2,positive).
example(e781,f3,negative).
example(e781,f4,negative).
example(e781,f5,negative).
example(e781,f6,negative).
example(e781,f7,positive).
example(e781,f8,negative).
example(e781,f9,negative).
example(e781,f10,negative).
example(e782,f1,negative).
example(e782,f2,positive).
example(e782,f3,negative).
example(e782,f4,negative).
example(e782,f5,negative).
example(e782,f6,negative).
example(e782,f7,negative).
example(e782,f8,positive).
example(e782,f9,positive).
example(e782,f10,negative).
example(e783,f1,positive).
example(e783,f2,negative).
example(e783,f3,negative).
example(e783,f4,positive).
example(e783,f5,negative).
example(e783,f6,negative).
example(e783,f7,positive).
example(e783,f8,positive).
example(e783,f9,positive).
example(e783,f10,positive).
example(e784,f1,negative).
example(e784,f2,negative).
example(e784,f3,positive).
example(e784,f4,negative).
example(e784,f5,positive).
example(e784,f6,positive).
example(e784,f7,negative).
example(e784,f8,positive).
example(e784,f9,positive).
example(e784,f10,positive).
example(e785,f1,negative).
example(e785,f2,positive).
example(e785,f3,positive).
example(e785,f4,negative).
example(e785,f5,positive).
example(e785,f6,negative).
example(e785,f7,positive).
example(e785,f8,negative).
example(e785,f9,positive).
example(e785,f10,negative).
example(e786,f1,negative).
example(e786,f2,negative).
example(e786,f3,negative).
example(e786,f4,negative).
example(e786,f5,negative).
example(e786,f6,positive).
example(e786,f7,positive).
example(e786,f8,positive).
example(e786,f9,positive).
example(e786,f10,negative).
example(e787,f1,positive).
example(e787,f2,positive).
example(e787,f3,negative).
example(e787,f4,negative).
example(e787,f5,positive).
example(e787,f6,positive).
example(e787,f7,positive).
example(e787,f8,positive).
example(e787,f9,positive).
example(e787,f10,negative).
example(e788,f1,positive).
example(e788,f2,negative).
example(e788,f3,negative).
example(e788,f4,positive).
example(e788,f5,negative).
example(e788,f6,negative).
example(e788,f7,positive).
example(e788,f8,negative).
example(e788,f9,positive).
example(e788,f10,positive).
example(e789,f1,negative).
example(e789,f2,positive).
example(e789,f3,negative).
example(e789,f4,negative).
example(e789,f5,negative).
example(e789,f6,negative).
example(e789,f7,positive).
example(e789,f8,positive).
example(e789,f9,negative).
example(e789,f10,positive).
example(e790,f1,positive).
example(e790,f2,negative).
example(e790,f3,negative).
example(e790,f4,negative).
example(e790,f5,negative).
example(e790,f6,negative).
example(e790,f7,positive).
example(e790,f8,positive).
example(e790,f9,negative).
example(e790,f10,negative).
example(e791,f1,negative).
example(e791,f2,positive).
example(e791,f3,positive).
example(e791,f4,positive).
example(e791,f5,positive).
example(e791,f6,negative).
example(e791,f7,negative).
example(e791,f8,positive).
example(e791,f9,negative).
example(e791,f10,negative).
example(e792,f1,negative).
example(e792,f2,negative).
example(e792,f3,negative).
example(e792,f4,negative).
example(e792,f5,positive).
example(e792,f6,negative).
example(e792,f7,positive).
example(e792,f8,negative).
example(e792,f9,negative).
example(e792,f10,positive).
example(e793,f1,negative).
example(e793,f2,negative).
example(e793,f3,positive).
example(e793,f4,positive).
example(e793,f5,positive).
example(e793,f6,positive).
example(e793,f7,positive).
example(e793,f8,positive).
example(e793,f9,positive).
example(e793,f10,positive).
example(e794,f1,negative).
example(e794,f2,negative).
example(e794,f3,negative).
example(e794,f4,positive).
example(e794,f5,negative).
example(e794,f6,positive).
example(e794,f7,positive).
example(e794,f8,negative).
example(e794,f9,positive).
example(e794,f10,negative).
example(e795,f1,positive).
example(e795,f2,negative).
example(e795,f3,negative).
example(e795,f4,positive).
example(e795,f5,negative).
example(e795,f6,positive).
example(e795,f7,negative).
example(e795,f8,positive).
example(e795,f9,positive).
example(e795,f10,negative).
example(e796,f1,positive).
example(e796,f2,negative).
example(e796,f3,negative).
example(e796,f4,negative).
example(e796,f5,positive).
example(e796,f6,negative).
example(e796,f7,positive).
example(e796,f8,negative).
example(e796,f9,positive).
example(e796,f10,negative).
example(e797,f1,positive).
example(e797,f2,negative).
example(e797,f3,negative).
example(e797,f4,positive).
example(e797,f5,positive).
example(e797,f6,positive).
example(e797,f7,positive).
example(e797,f8,negative).
example(e797,f9,positive).
example(e797,f10,negative).
example(e798,f1,positive).
example(e798,f2,positive).
example(e798,f3,positive).
example(e798,f4,negative).
example(e798,f5,negative).
example(e798,f6,negative).
example(e798,f7,negative).
example(e798,f8,positive).
example(e798,f9,positive).
example(e798,f10,negative).
example(e799,f1,negative).
example(e799,f2,negative).
example(e799,f3,negative).
example(e799,f4,positive).
example(e799,f5,positive).
example(e799,f6,negative).
example(e799,f7,negative).
example(e799,f8,positive).
example(e799,f9,positive).
example(e799,f10,positive).
example(e800,f1,negative).
example(e800,f2,positive).
example(e800,f3,positive).
example(e800,f4,positive).
example(e800,f5,negative).
example(e800,f6,negative).
example(e800,f7,positive).
example(e800,f8,negative).
example(e800,f9,negative).
example(e800,f10,positive).
example(e801,f1,positive).
example(e801,f2,negative).
example(e801,f3,negative).
example(e801,f4,negative).
example(e801,f5,negative).
example(e801,f6,positive).
example(e801,f7,positive).
example(e801,f8,positive).
example(e801,f9,positive).
example(e801,f10,negative).
example(e802,f1,positive).
example(e802,f2,negative).
example(e802,f3,negative).
example(e802,f4,negative).
example(e802,f5,negative).
example(e802,f6,positive).
example(e802,f7,negative).
example(e802,f8,negative).
example(e802,f9,negative).
example(e802,f10,positive).
example(e803,f1,positive).
example(e803,f2,negative).
example(e803,f3,negative).
example(e803,f4,negative).
example(e803,f5,positive).
example(e803,f6,negative).
example(e803,f7,positive).
example(e803,f8,negative).
example(e803,f9,negative).
example(e803,f10,negative).
example(e804,f1,positive).
example(e804,f2,positive).
example(e804,f3,negative).
example(e804,f4,negative).
example(e804,f5,negative).
example(e804,f6,negative).
example(e804,f7,positive).
example(e804,f8,positive).
example(e804,f9,positive).
example(e804,f10,positive).
example(e805,f1,positive).
example(e805,f2,negative).
example(e805,f3,negative).
example(e805,f4,positive).
example(e805,f5,negative).
example(e805,f6,negative).
example(e805,f7,positive).
example(e805,f8,negative).
example(e805,f9,negative).
example(e805,f10,positive).
example(e806,f1,negative).
example(e806,f2,positive).
example(e806,f3,negative).
example(e806,f4,positive).
example(e806,f5,positive).
example(e806,f6,positive).
example(e806,f7,negative).
example(e806,f8,negative).
example(e806,f9,negative).
example(e806,f10,positive).
example(e807,f1,negative).
example(e807,f2,negative).
example(e807,f3,negative).
example(e807,f4,positive).
example(e807,f5,positive).
example(e807,f6,positive).
example(e807,f7,negative).
example(e807,f8,positive).
example(e807,f9,positive).
example(e807,f10,positive).
example(e808,f1,negative).
example(e808,f2,negative).
example(e808,f3,positive).
example(e808,f4,negative).
example(e808,f5,negative).
example(e808,f6,positive).
example(e808,f7,negative).
example(e808,f8,negative).
example(e808,f9,positive).
example(e808,f10,positive).
example(e809,f1,positive).
example(e809,f2,negative).
example(e809,f3,negative).
example(e809,f4,negative).
example(e809,f5,negative).
example(e809,f6,negative).
example(e809,f7,negative).
example(e809,f8,negative).
example(e809,f9,positive).
example(e809,f10,negative).
example(e810,f1,positive).
example(e810,f2,negative).
example(e810,f3,negative).
example(e810,f4,positive).
example(e810,f5,negative).
example(e810,f6,negative).
example(e810,f7,negative).
example(e810,f8,negative).
example(e810,f9,negative).
example(e810,f10,negative).
example(e811,f1,negative).
example(e811,f2,positive).
example(e811,f3,positive).
example(e811,f4,negative).
example(e811,f5,negative).
example(e811,f6,negative).
example(e811,f7,positive).
example(e811,f8,negative).
example(e811,f9,positive).
example(e811,f10,negative).
example(e812,f1,positive).
example(e812,f2,negative).
example(e812,f3,negative).
example(e812,f4,negative).
example(e812,f5,positive).
example(e812,f6,negative).
example(e812,f7,negative).
example(e812,f8,positive).
example(e812,f9,positive).
example(e812,f10,positive).
example(e813,f1,positive).
example(e813,f2,positive).
example(e813,f3,negative).
example(e813,f4,negative).
example(e813,f5,negative).
example(e813,f6,negative).
example(e813,f7,negative).
example(e813,f8,positive).
example(e813,f9,negative).
example(e813,f10,negative).
example(e814,f1,negative).
example(e814,f2,positive).
example(e814,f3,positive).
example(e814,f4,negative).
example(e814,f5,positive).
example(e814,f6,negative).
example(e814,f7,negative).
example(e814,f8,positive).
example(e814,f9,negative).
example(e814,f10,positive).
example(e815,f1,negative).
example(e815,f2,positive).
example(e815,f3,negative).
example(e815,f4,positive).
example(e815,f5,negative).
example(e815,f6,positive).
example(e815,f7,negative).
example(e815,f8,positive).
example(e815,f9,positive).
example(e815,f10,positive).
example(e816,f1,negative).
example(e816,f2,negative).
example(e816,f3,negative).
example(e816,f4,positive).
example(e816,f5,negative).
example(e816,f6,positive).
example(e816,f7,negative).
example(e816,f8,positive).
example(e816,f9,positive).
example(e816,f10,negative).
example(e817,f1,positive).
example(e817,f2,negative).
example(e817,f3,negative).
example(e817,f4,negative).
example(e817,f5,negative).
example(e817,f6,positive).
example(e817,f7,positive).
example(e817,f8,negative).
example(e817,f9,negative).
example(e817,f10,negative).
example(e818,f1,negative).
example(e818,f2,negative).
example(e818,f3,positive).
example(e818,f4,positive).
example(e818,f5,positive).
example(e818,f6,negative).
example(e818,f7,negative).
example(e818,f8,negative).
example(e818,f9,negative).
example(e818,f10,positive).
example(e819,f1,positive).
example(e819,f2,positive).
example(e819,f3,positive).
example(e819,f4,negative).
example(e819,f5,negative).
example(e819,f6,negative).
example(e819,f7,positive).
example(e819,f8,positive).
example(e819,f9,positive).
example(e819,f10,positive).
example(e820,f1,negative).
example(e820,f2,negative).
example(e820,f3,negative).
example(e820,f4,negative).
example(e820,f5,positive).
example(e820,f6,negative).
example(e820,f7,negative).
example(e820,f8,negative).
example(e820,f9,positive).
example(e820,f10,negative).
example(e821,f1,negative).
example(e821,f2,negative).
example(e821,f3,positive).
example(e821,f4,positive).
example(e821,f5,negative).
example(e821,f6,negative).
example(e821,f7,negative).
example(e821,f8,positive).
example(e821,f9,positive).
example(e821,f10,positive).
example(e822,f1,positive).
example(e822,f2,positive).
example(e822,f3,positive).
example(e822,f4,positive).
example(e822,f5,negative).
example(e822,f6,positive).
example(e822,f7,positive).
example(e822,f8,positive).
example(e822,f9,positive).
example(e822,f10,negative).
example(e823,f1,negative).
example(e823,f2,negative).
example(e823,f3,positive).
example(e823,f4,positive).
example(e823,f5,negative).
example(e823,f6,positive).
example(e823,f7,positive).
example(e823,f8,positive).
example(e823,f9,negative).
example(e823,f10,positive).
example(e824,f1,negative).
example(e824,f2,positive).
example(e824,f3,negative).
example(e824,f4,positive).
example(e824,f5,positive).
example(e824,f6,positive).
example(e824,f7,negative).
example(e824,f8,negative).
example(e824,f9,positive).
example(e824,f10,negative).
example(e825,f1,positive).
example(e825,f2,positive).
example(e825,f3,positive).
example(e825,f4,negative).
example(e825,f5,negative).
example(e825,f6,negative).
example(e825,f7,negative).
example(e825,f8,negative).
example(e825,f9,negative).
example(e825,f10,positive).
example(e826,f1,negative).
example(e826,f2,negative).
example(e826,f3,positive).
example(e826,f4,negative).
example(e826,f5,positive).
example(e826,f6,negative).
example(e826,f7,positive).
example(e826,f8,positive).
example(e826,f9,negative).
example(e826,f10,negative).
example(e827,f1,positive).
example(e827,f2,positive).
example(e827,f3,negative).
example(e827,f4,negative).
example(e827,f5,negative).
example(e827,f6,positive).
example(e827,f7,negative).
example(e827,f8,positive).
example(e827,f9,negative).
example(e827,f10,positive).
example(e828,f1,positive).
example(e828,f2,positive).
example(e828,f3,negative).
example(e828,f4,positive).
example(e828,f5,negative).
example(e828,f6,negative).
example(e828,f7,positive).
example(e828,f8,positive).
example(e828,f9,positive).
example(e828,f10,positive).
example(e829,f1,positive).
example(e829,f2,negative).
example(e829,f3,negative).
example(e829,f4,positive).
example(e829,f5,positive).
example(e829,f6,positive).
example(e829,f7,negative).
example(e829,f8,positive).
example(e829,f9,positive).
example(e829,f10,negative).
example(e830,f1,negative).
example(e830,f2,negative).
example(e830,f3,positive).
example(e830,f4,negative).
example(e830,f5,negative).
example(e830,f6,positive).
example(e830,f7,negative).
example(e830,f8,positive).
example(e830,f9,negative).
example(e830,f10,positive).
example(e831,f1,positive).
example(e831,f2,negative).
example(e831,f3,positive).
example(e831,f4,positive).
example(e831,f5,positive).
example(e831,f6,negative).
example(e831,f7,negative).
example(e831,f8,positive).
example(e831,f9,negative).
example(e831,f10,positive).
example(e832,f1,negative).
example(e832,f2,negative).
example(e832,f3,positive).
example(e832,f4,negative).
example(e832,f5,negative).
example(e832,f6,positive).
example(e832,f7,negative).
example(e832,f8,positive).
example(e832,f9,negative).
example(e832,f10,negative).
example(e833,f1,positive).
example(e833,f2,positive).
example(e833,f3,positive).
example(e833,f4,negative).
example(e833,f5,negative).
example(e833,f6,positive).
example(e833,f7,negative).
example(e833,f8,negative).
example(e833,f9,negative).
example(e833,f10,negative).
example(e834,f1,positive).
example(e834,f2,positive).
example(e834,f3,negative).
example(e834,f4,negative).
example(e834,f5,negative).
example(e834,f6,negative).
example(e834,f7,negative).
example(e834,f8,negative).
example(e834,f9,negative).
example(e834,f10,positive).
example(e835,f1,negative).
example(e835,f2,positive).
example(e835,f3,positive).
example(e835,f4,positive).
example(e835,f5,positive).
example(e835,f6,positive).
example(e835,f7,negative).
example(e835,f8,positive).
example(e835,f9,negative).
example(e835,f10,positive).
example(e836,f1,positive).
example(e836,f2,negative).
example(e836,f3,positive).
example(e836,f4,negative).
example(e836,f5,positive).
example(e836,f6,positive).
example(e836,f7,negative).
example(e836,f8,positive).
example(e836,f9,negative).
example(e836,f10,positive).
example(e837,f1,positive).
example(e837,f2,positive).
example(e837,f3,positive).
example(e837,f4,positive).
example(e837,f5,negative).
example(e837,f6,positive).
example(e837,f7,positive).
example(e837,f8,positive).
example(e837,f9,negative).
example(e837,f10,negative).
example(e838,f1,positive).
example(e838,f2,positive).
example(e838,f3,negative).
example(e838,f4,positive).
example(e838,f5,negative).
example(e838,f6,negative).
example(e838,f7,negative).
example(e838,f8,negative).
example(e838,f9,positive).
example(e838,f10,positive).
example(e839,f1,positive).
example(e839,f2,positive).
example(e839,f3,negative).
example(e839,f4,positive).
example(e839,f5,positive).
example(e839,f6,positive).
example(e839,f7,negative).
example(e839,f8,negative).
example(e839,f9,positive).
example(e839,f10,positive).
example(e840,f1,negative).
example(e840,f2,positive).
example(e840,f3,positive).
example(e840,f4,negative).
example(e840,f5,negative).
example(e840,f6,negative).
example(e840,f7,positive).
example(e840,f8,negative).
example(e840,f9,positive).
example(e840,f10,positive).
example(e841,f1,negative).
example(e841,f2,negative).
example(e841,f3,positive).
example(e841,f4,positive).
example(e841,f5,negative).
example(e841,f6,negative).
example(e841,f7,negative).
example(e841,f8,negative).
example(e841,f9,negative).
example(e841,f10,positive).
example(e842,f1,negative).
example(e842,f2,positive).
example(e842,f3,negative).
example(e842,f4,negative).
example(e842,f5,positive).
example(e842,f6,positive).
example(e842,f7,negative).
example(e842,f8,negative).
example(e842,f9,negative).
example(e842,f10,negative).
example(e843,f1,positive).
example(e843,f2,positive).
example(e843,f3,negative).
example(e843,f4,positive).
example(e843,f5,negative).
example(e843,f6,negative).
example(e843,f7,positive).
example(e843,f8,negative).
example(e843,f9,positive).
example(e843,f10,positive).
example(e844,f1,positive).
example(e844,f2,positive).
example(e844,f3,negative).
example(e844,f4,negative).
example(e844,f5,positive).
example(e844,f6,positive).
example(e844,f7,negative).
example(e844,f8,positive).
example(e844,f9,positive).
example(e844,f10,positive).
example(e845,f1,positive).
example(e845,f2,negative).
example(e845,f3,positive).
example(e845,f4,negative).
example(e845,f5,positive).
example(e845,f6,negative).
example(e845,f7,negative).
example(e845,f8,positive).
example(e845,f9,positive).
example(e845,f10,positive).
example(e846,f1,positive).
example(e846,f2,negative).
example(e846,f3,negative).
example(e846,f4,positive).
example(e846,f5,positive).
example(e846,f6,negative).
example(e846,f7,positive).
example(e846,f8,negative).
example(e846,f9,negative).
example(e846,f10,negative).
example(e847,f1,positive).
example(e847,f2,negative).
example(e847,f3,negative).
example(e847,f4,positive).
example(e847,f5,negative).
example(e847,f6,negative).
example(e847,f7,negative).
example(e847,f8,positive).
example(e847,f9,positive).
example(e847,f10,negative).
example(e848,f1,negative).
example(e848,f2,positive).
example(e848,f3,negative).
example(e848,f4,positive).
example(e848,f5,negative).
example(e848,f6,negative).
example(e848,f7,negative).
example(e848,f8,negative).
example(e848,f9,negative).
example(e848,f10,positive).
example(e849,f1,negative).
example(e849,f2,negative).
example(e849,f3,positive).
example(e849,f4,negative).
example(e849,f5,positive).
example(e849,f6,positive).
example(e849,f7,positive).
example(e849,f8,positive).
example(e849,f9,positive).
example(e849,f10,positive).
example(e850,f1,positive).
example(e850,f2,positive).
example(e850,f3,negative).
example(e850,f4,positive).
example(e850,f5,positive).
example(e850,f6,positive).
example(e850,f7,negative).
example(e850,f8,negative).
example(e850,f9,negative).
example(e850,f10,positive).
example(e851,f1,negative).
example(e851,f2,positive).
example(e851,f3,positive).
example(e851,f4,positive).
example(e851,f5,negative).
example(e851,f6,negative).
example(e851,f7,positive).
example(e851,f8,positive).
example(e851,f9,negative).
example(e851,f10,positive).
example(e852,f1,positive).
example(e852,f2,negative).
example(e852,f3,negative).
example(e852,f4,positive).
example(e852,f5,positive).
example(e852,f6,negative).
example(e852,f7,positive).
example(e852,f8,positive).
example(e852,f9,positive).
example(e852,f10,positive).
example(e853,f1,positive).
example(e853,f2,negative).
example(e853,f3,negative).
example(e853,f4,positive).
example(e853,f5,positive).
example(e853,f6,positive).
example(e853,f7,negative).
example(e853,f8,positive).
example(e853,f9,positive).
example(e853,f10,positive).
example(e854,f1,positive).
example(e854,f2,positive).
example(e854,f3,negative).
example(e854,f4,positive).
example(e854,f5,negative).
example(e854,f6,positive).
example(e854,f7,positive).
example(e854,f8,positive).
example(e854,f9,positive).
example(e854,f10,negative).
example(e855,f1,positive).
example(e855,f2,negative).
example(e855,f3,negative).
example(e855,f4,negative).
example(e855,f5,positive).
example(e855,f6,negative).
example(e855,f7,positive).
example(e855,f8,positive).
example(e855,f9,positive).
example(e855,f10,negative).
example(e856,f1,positive).
example(e856,f2,positive).
example(e856,f3,negative).
example(e856,f4,negative).
example(e856,f5,positive).
example(e856,f6,positive).
example(e856,f7,negative).
example(e856,f8,positive).
example(e856,f9,negative).
example(e856,f10,negative).
example(e857,f1,negative).
example(e857,f2,positive).
example(e857,f3,positive).
example(e857,f4,positive).
example(e857,f5,positive).
example(e857,f6,positive).
example(e857,f7,negative).
example(e857,f8,negative).
example(e857,f9,negative).
example(e857,f10,positive).
example(e858,f1,positive).
example(e858,f2,negative).
example(e858,f3,positive).
example(e858,f4,negative).
example(e858,f5,positive).
example(e858,f6,negative).
example(e858,f7,negative).
example(e858,f8,negative).
example(e858,f9,negative).
example(e858,f10,positive).
example(e859,f1,negative).
example(e859,f2,positive).
example(e859,f3,positive).
example(e859,f4,negative).
example(e859,f5,negative).
example(e859,f6,negative).
example(e859,f7,negative).
example(e859,f8,positive).
example(e859,f9,positive).
example(e859,f10,negative).
example(e860,f1,negative).
example(e860,f2,positive).
example(e860,f3,positive).
example(e860,f4,positive).
example(e860,f5,positive).
example(e860,f6,negative).
example(e860,f7,positive).
example(e860,f8,positive).
example(e860,f9,positive).
example(e860,f10,negative).
example(e861,f1,negative).
example(e861,f2,negative).
example(e861,f3,negative).
example(e861,f4,negative).
example(e861,f5,negative).
example(e861,f6,negative).
example(e861,f7,negative).
example(e861,f8,positive).
example(e861,f9,negative).
example(e861,f10,negative).
example(e862,f1,positive).
example(e862,f2,negative).
example(e862,f3,positive).
example(e862,f4,positive).
example(e862,f5,positive).
example(e862,f6,negative).
example(e862,f7,negative).
example(e862,f8,negative).
example(e862,f9,positive).
example(e862,f10,positive).
example(e863,f1,positive).
example(e863,f2,positive).
example(e863,f3,positive).
example(e863,f4,negative).
example(e863,f5,negative).
example(e863,f6,positive).
example(e863,f7,negative).
example(e863,f8,positive).
example(e863,f9,positive).
example(e863,f10,negative).
example(e864,f1,negative).
example(e864,f2,negative).
example(e864,f3,positive).
example(e864,f4,negative).
example(e864,f5,positive).
example(e864,f6,negative).
example(e864,f7,negative).
example(e864,f8,negative).
example(e864,f9,positive).
example(e864,f10,positive).
example(e865,f1,negative).
example(e865,f2,positive).
example(e865,f3,negative).
example(e865,f4,positive).
example(e865,f5,positive).
example(e865,f6,negative).
example(e865,f7,negative).
example(e865,f8,negative).
example(e865,f9,negative).
example(e865,f10,positive).
example(e866,f1,negative).
example(e866,f2,positive).
example(e866,f3,negative).
example(e866,f4,negative).
example(e866,f5,positive).
example(e866,f6,negative).
example(e866,f7,positive).
example(e866,f8,negative).
example(e866,f9,positive).
example(e866,f10,positive).
example(e867,f1,positive).
example(e867,f2,negative).
example(e867,f3,positive).
example(e867,f4,negative).
example(e867,f5,positive).
example(e867,f6,positive).
example(e867,f7,negative).
example(e867,f8,positive).
example(e867,f9,positive).
example(e867,f10,negative).
example(e868,f1,positive).
example(e868,f2,positive).
example(e868,f3,positive).
example(e868,f4,negative).
example(e868,f5,positive).
example(e868,f6,positive).
example(e868,f7,negative).
example(e868,f8,negative).
example(e868,f9,positive).
example(e868,f10,negative).
example(e869,f1,negative).
example(e869,f2,positive).
example(e869,f3,positive).
example(e869,f4,negative).
example(e869,f5,negative).
example(e869,f6,positive).
example(e869,f7,positive).
example(e869,f8,positive).
example(e869,f9,negative).
example(e869,f10,negative).
example(e870,f1,positive).
example(e870,f2,negative).
example(e870,f3,positive).
example(e870,f4,negative).
example(e870,f5,positive).
example(e870,f6,positive).
example(e870,f7,positive).
example(e870,f8,positive).
example(e870,f9,positive).
example(e870,f10,negative).
example(e871,f1,negative).
example(e871,f2,positive).
example(e871,f3,positive).
example(e871,f4,positive).
example(e871,f5,positive).
example(e871,f6,positive).
example(e871,f7,negative).
example(e871,f8,negative).
example(e871,f9,positive).
example(e871,f10,negative).
example(e872,f1,positive).
example(e872,f2,positive).
example(e872,f3,negative).
example(e872,f4,negative).
example(e872,f5,negative).
example(e872,f6,negative).
example(e872,f7,negative).
example(e872,f8,positive).
example(e872,f9,negative).
example(e872,f10,positive).
example(e873,f1,negative).
example(e873,f2,negative).
example(e873,f3,negative).
example(e873,f4,positive).
example(e873,f5,negative).
example(e873,f6,positive).
example(e873,f7,positive).
example(e873,f8,negative).
example(e873,f9,negative).
example(e873,f10,positive).
example(e874,f1,negative).
example(e874,f2,positive).
example(e874,f3,negative).
example(e874,f4,positive).
example(e874,f5,negative).
example(e874,f6,negative).
example(e874,f7,negative).
example(e874,f8,negative).
example(e874,f9,positive).
example(e874,f10,positive).
example(e875,f1,negative).
example(e875,f2,positive).
example(e875,f3,positive).
example(e875,f4,positive).
example(e875,f5,positive).
example(e875,f6,positive).
example(e875,f7,negative).
example(e875,f8,negative).
example(e875,f9,positive).
example(e875,f10,positive).
example(e876,f1,negative).
example(e876,f2,negative).
example(e876,f3,negative).
example(e876,f4,negative).
example(e876,f5,positive).
example(e876,f6,negative).
example(e876,f7,negative).
example(e876,f8,positive).
example(e876,f9,negative).
example(e876,f10,positive).
example(e877,f1,positive).
example(e877,f2,negative).
example(e877,f3,positive).
example(e877,f4,negative).
example(e877,f5,positive).
example(e877,f6,positive).
example(e877,f7,negative).
example(e877,f8,negative).
example(e877,f9,negative).
example(e877,f10,negative).
example(e878,f1,positive).
example(e878,f2,positive).
example(e878,f3,positive).
example(e878,f4,negative).
example(e878,f5,negative).
example(e878,f6,positive).
example(e878,f7,negative).
example(e878,f8,positive).
example(e878,f9,negative).
example(e878,f10,positive).
example(e879,f1,positive).
example(e879,f2,negative).
example(e879,f3,positive).
example(e879,f4,positive).
example(e879,f5,positive).
example(e879,f6,negative).
example(e879,f7,negative).
example(e879,f8,negative).
example(e879,f9,negative).
example(e879,f10,positive).
example(e880,f1,positive).
example(e880,f2,negative).
example(e880,f3,positive).
example(e880,f4,negative).
example(e880,f5,positive).
example(e880,f6,positive).
example(e880,f7,negative).
example(e880,f8,positive).
example(e880,f9,positive).
example(e880,f10,positive).
example(e881,f1,positive).
example(e881,f2,positive).
example(e881,f3,negative).
example(e881,f4,negative).
example(e881,f5,positive).
example(e881,f6,negative).
example(e881,f7,negative).
example(e881,f8,positive).
example(e881,f9,positive).
example(e881,f10,positive).
example(e882,f1,positive).
example(e882,f2,negative).
example(e882,f3,negative).
example(e882,f4,positive).
example(e882,f5,negative).
example(e882,f6,negative).
example(e882,f7,positive).
example(e882,f8,negative).
example(e882,f9,negative).
example(e882,f10,negative).
example(e883,f1,negative).
example(e883,f2,positive).
example(e883,f3,negative).
example(e883,f4,negative).
example(e883,f5,negative).
example(e883,f6,positive).
example(e883,f7,negative).
example(e883,f8,negative).
example(e883,f9,negative).
example(e883,f10,negative).
example(e884,f1,negative).
example(e884,f2,positive).
example(e884,f3,positive).
example(e884,f4,negative).
example(e884,f5,negative).
example(e884,f6,negative).
example(e884,f7,negative).
example(e884,f8,positive).
example(e884,f9,negative).
example(e884,f10,positive).
example(e885,f1,negative).
example(e885,f2,negative).
example(e885,f3,negative).
example(e885,f4,negative).
example(e885,f5,positive).
example(e885,f6,negative).
example(e885,f7,negative).
example(e885,f8,positive).
example(e885,f9,positive).
example(e885,f10,negative).
example(e886,f1,negative).
example(e886,f2,negative).
example(e886,f3,negative).
example(e886,f4,negative).
example(e886,f5,positive).
example(e886,f6,positive).
example(e886,f7,positive).
example(e886,f8,negative).
example(e886,f9,negative).
example(e886,f10,negative).
example(e887,f1,negative).
example(e887,f2,positive).
example(e887,f3,negative).
example(e887,f4,negative).
example(e887,f5,negative).
example(e887,f6,negative).
example(e887,f7,positive).
example(e887,f8,negative).
example(e887,f9,negative).
example(e887,f10,positive).
example(e888,f1,positive).
example(e888,f2,positive).
example(e888,f3,positive).
example(e888,f4,negative).
example(e888,f5,positive).
example(e888,f6,negative).
example(e888,f7,positive).
example(e888,f8,positive).
example(e888,f9,negative).
example(e888,f10,positive).
example(e889,f1,positive).
example(e889,f2,positive).
example(e889,f3,positive).
example(e889,f4,positive).
example(e889,f5,negative).
example(e889,f6,positive).
example(e889,f7,positive).
example(e889,f8,negative).
example(e889,f9,positive).
example(e889,f10,negative).
example(e890,f1,positive).
example(e890,f2,positive).
example(e890,f3,negative).
example(e890,f4,positive).
example(e890,f5,negative).
example(e890,f6,positive).
example(e890,f7,negative).
example(e890,f8,negative).
example(e890,f9,positive).
example(e890,f10,negative).
example(e891,f1,negative).
example(e891,f2,negative).
example(e891,f3,negative).
example(e891,f4,positive).
example(e891,f5,negative).
example(e891,f6,negative).
example(e891,f7,positive).
example(e891,f8,positive).
example(e891,f9,positive).
example(e891,f10,positive).
example(e892,f1,negative).
example(e892,f2,positive).
example(e892,f3,positive).
example(e892,f4,positive).
example(e892,f5,negative).
example(e892,f6,negative).
example(e892,f7,negative).
example(e892,f8,negative).
example(e892,f9,positive).
example(e892,f10,negative).
example(e893,f1,negative).
example(e893,f2,negative).
example(e893,f3,positive).
example(e893,f4,positive).
example(e893,f5,negative).
example(e893,f6,negative).
example(e893,f7,negative).
example(e893,f8,positive).
example(e893,f9,positive).
example(e893,f10,negative).
example(e894,f1,negative).
example(e894,f2,negative).
example(e894,f3,negative).
example(e894,f4,negative).
example(e894,f5,negative).
example(e894,f6,positive).
example(e894,f7,negative).
example(e894,f8,negative).
example(e894,f9,negative).
example(e894,f10,negative).
example(e895,f1,positive).
example(e895,f2,positive).
example(e895,f3,positive).
example(e895,f4,negative).
example(e895,f5,negative).
example(e895,f6,negative).
example(e895,f7,positive).
example(e895,f8,positive).
example(e895,f9,negative).
example(e895,f10,negative).
example(e896,f1,positive).
example(e896,f2,positive).
example(e896,f3,negative).
example(e896,f4,negative).
example(e896,f5,negative).
example(e896,f6,positive).
example(e896,f7,positive).
example(e896,f8,negative).
example(e896,f9,negative).
example(e896,f10,negative).
example(e897,f1,negative).
example(e897,f2,negative).
example(e897,f3,negative).
example(e897,f4,positive).
example(e897,f5,negative).
example(e897,f6,negative).
example(e897,f7,positive).
example(e897,f8,positive).
example(e897,f9,negative).
example(e897,f10,positive).
example(e898,f1,negative).
example(e898,f2,negative).
example(e898,f3,positive).
example(e898,f4,positive).
example(e898,f5,positive).
example(e898,f6,negative).
example(e898,f7,positive).
example(e898,f8,negative).
example(e898,f9,positive).
example(e898,f10,positive).
example(e899,f1,positive).
example(e899,f2,positive).
example(e899,f3,negative).
example(e899,f4,positive).
example(e899,f5,positive).
example(e899,f6,negative).
example(e899,f7,negative).
example(e899,f8,positive).
example(e899,f9,positive).
example(e899,f10,negative).
example(e900,f1,negative).
example(e900,f2,positive).
example(e900,f3,negative).
example(e900,f4,positive).
example(e900,f5,positive).
example(e900,f6,positive).
example(e900,f7,negative).
example(e900,f8,positive).
example(e900,f9,negative).
example(e900,f10,negative).
example(e901,f1,negative).
example(e901,f2,positive).
example(e901,f3,positive).
example(e901,f4,negative).
example(e901,f5,positive).
example(e901,f6,positive).
example(e901,f7,negative).
example(e901,f8,negative).
example(e901,f9,negative).
example(e901,f10,negative).
example(e902,f1,positive).
example(e902,f2,negative).
example(e902,f3,negative).
example(e902,f4,negative).
example(e902,f5,positive).
example(e902,f6,positive).
example(e902,f7,positive).
example(e902,f8,negative).
example(e902,f9,positive).
example(e902,f10,negative).
example(e903,f1,positive).
example(e903,f2,positive).
example(e903,f3,negative).
example(e903,f4,negative).
example(e903,f5,negative).
example(e903,f6,negative).
example(e903,f7,positive).
example(e903,f8,negative).
example(e903,f9,negative).
example(e903,f10,negative).
example(e904,f1,positive).
example(e904,f2,positive).
example(e904,f3,negative).
example(e904,f4,negative).
example(e904,f5,negative).
example(e904,f6,negative).
example(e904,f7,negative).
example(e904,f8,positive).
example(e904,f9,positive).
example(e904,f10,positive).
example(e905,f1,negative).
example(e905,f2,negative).
example(e905,f3,negative).
example(e905,f4,negative).
example(e905,f5,positive).
example(e905,f6,negative).
example(e905,f7,positive).
example(e905,f8,negative).
example(e905,f9,positive).
example(e905,f10,positive).
example(e906,f1,negative).
example(e906,f2,positive).
example(e906,f3,negative).
example(e906,f4,negative).
example(e906,f5,negative).
example(e906,f6,negative).
example(e906,f7,negative).
example(e906,f8,negative).
example(e906,f9,negative).
example(e906,f10,positive).
example(e907,f1,negative).
example(e907,f2,positive).
example(e907,f3,positive).
example(e907,f4,positive).
example(e907,f5,negative).
example(e907,f6,negative).
example(e907,f7,negative).
example(e907,f8,negative).
example(e907,f9,positive).
example(e907,f10,positive).
example(e908,f1,positive).
example(e908,f2,negative).
example(e908,f3,negative).
example(e908,f4,positive).
example(e908,f5,negative).
example(e908,f6,negative).
example(e908,f7,positive).
example(e908,f8,negative).
example(e908,f9,positive).
example(e908,f10,negative).
example(e909,f1,negative).
example(e909,f2,positive).
example(e909,f3,negative).
example(e909,f4,positive).
example(e909,f5,negative).
example(e909,f6,negative).
example(e909,f7,positive).
example(e909,f8,positive).
example(e909,f9,positive).
example(e909,f10,positive).
example(e910,f1,negative).
example(e910,f2,positive).
example(e910,f3,negative).
example(e910,f4,negative).
example(e910,f5,positive).
example(e910,f6,negative).
example(e910,f7,positive).
example(e910,f8,positive).
example(e910,f9,positive).
example(e910,f10,negative).
example(e911,f1,negative).
example(e911,f2,positive).
example(e911,f3,positive).
example(e911,f4,negative).
example(e911,f5,positive).
example(e911,f6,positive).
example(e911,f7,negative).
example(e911,f8,positive).
example(e911,f9,positive).
example(e911,f10,positive).
example(e912,f1,negative).
example(e912,f2,negative).
example(e912,f3,positive).
example(e912,f4,positive).
example(e912,f5,negative).
example(e912,f6,positive).
example(e912,f7,positive).
example(e912,f8,positive).
example(e912,f9,negative).
example(e912,f10,negative).
example(e913,f1,negative).
example(e913,f2,positive).
example(e913,f3,negative).
example(e913,f4,negative).
example(e913,f5,negative).
example(e913,f6,positive).
example(e913,f7,positive).
example(e913,f8,positive).
example(e913,f9,positive).
example(e913,f10,negative).
example(e914,f1,positive).
example(e914,f2,negative).
example(e914,f3,negative).
example(e914,f4,negative).
example(e914,f5,negative).
example(e914,f6,negative).
example(e914,f7,negative).
example(e914,f8,negative).
example(e914,f9,negative).
example(e914,f10,positive).
example(e915,f1,negative).
example(e915,f2,negative).
example(e915,f3,positive).
example(e915,f4,positive).
example(e915,f5,positive).
example(e915,f6,negative).
example(e915,f7,negative).
example(e915,f8,positive).
example(e915,f9,negative).
example(e915,f10,positive).
example(e916,f1,positive).
example(e916,f2,positive).
example(e916,f3,positive).
example(e916,f4,positive).
example(e916,f5,positive).
example(e916,f6,positive).
example(e916,f7,negative).
example(e916,f8,positive).
example(e916,f9,negative).
example(e916,f10,negative).
example(e917,f1,negative).
example(e917,f2,negative).
example(e917,f3,positive).
example(e917,f4,negative).
example(e917,f5,negative).
example(e917,f6,positive).
example(e917,f7,positive).
example(e917,f8,negative).
example(e917,f9,positive).
example(e917,f10,positive).
example(e918,f1,positive).
example(e918,f2,positive).
example(e918,f3,positive).
example(e918,f4,negative).
example(e918,f5,negative).
example(e918,f6,positive).
example(e918,f7,negative).
example(e918,f8,negative).
example(e918,f9,negative).
example(e918,f10,positive).
example(e919,f1,positive).
example(e919,f2,positive).
example(e919,f3,positive).
example(e919,f4,negative).
example(e919,f5,negative).
example(e919,f6,negative).
example(e919,f7,positive).
example(e919,f8,negative).
example(e919,f9,negative).
example(e919,f10,negative).
example(e920,f1,positive).
example(e920,f2,positive).
example(e920,f3,negative).
example(e920,f4,positive).
example(e920,f5,negative).
example(e920,f6,positive).
example(e920,f7,negative).
example(e920,f8,positive).
example(e920,f9,negative).
example(e920,f10,positive).
example(e921,f1,negative).
example(e921,f2,positive).
example(e921,f3,negative).
example(e921,f4,positive).
example(e921,f5,negative).
example(e921,f6,positive).
example(e921,f7,negative).
example(e921,f8,positive).
example(e921,f9,negative).
example(e921,f10,positive).
example(e922,f1,positive).
example(e922,f2,positive).
example(e922,f3,negative).
example(e922,f4,positive).
example(e922,f5,negative).
example(e922,f6,negative).
example(e922,f7,negative).
example(e922,f8,positive).
example(e922,f9,positive).
example(e922,f10,positive).
example(e923,f1,positive).
example(e923,f2,negative).
example(e923,f3,negative).
example(e923,f4,positive).
example(e923,f5,positive).
example(e923,f6,negative).
example(e923,f7,negative).
example(e923,f8,positive).
example(e923,f9,positive).
example(e923,f10,positive).
example(e924,f1,positive).
example(e924,f2,negative).
example(e924,f3,positive).
example(e924,f4,positive).
example(e924,f5,positive).
example(e924,f6,negative).
example(e924,f7,positive).
example(e924,f8,negative).
example(e924,f9,positive).
example(e924,f10,positive).
example(e925,f1,positive).
example(e925,f2,positive).
example(e925,f3,negative).
example(e925,f4,positive).
example(e925,f5,negative).
example(e925,f6,positive).
example(e925,f7,positive).
example(e925,f8,negative).
example(e925,f9,negative).
example(e925,f10,positive).
example(e926,f1,negative).
example(e926,f2,negative).
example(e926,f3,negative).
example(e926,f4,positive).
example(e926,f5,negative).
example(e926,f6,negative).
example(e926,f7,positive).
example(e926,f8,negative).
example(e926,f9,positive).
example(e926,f10,positive).
example(e927,f1,negative).
example(e927,f2,positive).
example(e927,f3,positive).
example(e927,f4,positive).
example(e927,f5,positive).
example(e927,f6,negative).
example(e927,f7,positive).
example(e927,f8,negative).
example(e927,f9,negative).
example(e927,f10,negative).
example(e928,f1,negative).
example(e928,f2,positive).
example(e928,f3,negative).
example(e928,f4,negative).
example(e928,f5,negative).
example(e928,f6,positive).
example(e928,f7,positive).
example(e928,f8,negative).
example(e928,f9,negative).
example(e928,f10,negative).
example(e929,f1,negative).
example(e929,f2,negative).
example(e929,f3,negative).
example(e929,f4,negative).
example(e929,f5,negative).
example(e929,f6,negative).
example(e929,f7,positive).
example(e929,f8,positive).
example(e929,f9,negative).
example(e929,f10,positive).
example(e930,f1,positive).
example(e930,f2,positive).
example(e930,f3,positive).
example(e930,f4,negative).
example(e930,f5,negative).
example(e930,f6,positive).
example(e930,f7,positive).
example(e930,f8,positive).
example(e930,f9,positive).
example(e930,f10,positive).
example(e931,f1,positive).
example(e931,f2,negative).
example(e931,f3,negative).
example(e931,f4,negative).
example(e931,f5,negative).
example(e931,f6,positive).
example(e931,f7,negative).
example(e931,f8,negative).
example(e931,f9,negative).
example(e931,f10,negative).
example(e932,f1,negative).
example(e932,f2,negative).
example(e932,f3,negative).
example(e932,f4,positive).
example(e932,f5,positive).
example(e932,f6,negative).
example(e932,f7,negative).
example(e932,f8,negative).
example(e932,f9,positive).
example(e932,f10,negative).
example(e933,f1,positive).
example(e933,f2,negative).
example(e933,f3,positive).
example(e933,f4,negative).
example(e933,f5,positive).
example(e933,f6,negative).
example(e933,f7,positive).
example(e933,f8,negative).
example(e933,f9,positive).
example(e933,f10,negative).
example(e934,f1,negative).
example(e934,f2,negative).
example(e934,f3,positive).
example(e934,f4,positive).
example(e934,f5,positive).
example(e934,f6,negative).
example(e934,f7,negative).
example(e934,f8,negative).
example(e934,f9,positive).
example(e934,f10,negative).
example(e935,f1,positive).
example(e935,f2,positive).
example(e935,f3,positive).
example(e935,f4,negative).
example(e935,f5,negative).
example(e935,f6,negative).
example(e935,f7,negative).
example(e935,f8,positive).
example(e935,f9,negative).
example(e935,f10,positive).
example(e936,f1,positive).
example(e936,f2,positive).
example(e936,f3,negative).
example(e936,f4,positive).
example(e936,f5,positive).
example(e936,f6,negative).
example(e936,f7,negative).
example(e936,f8,negative).
example(e936,f9,negative).
example(e936,f10,positive).
example(e937,f1,negative).
example(e937,f2,negative).
example(e937,f3,negative).
example(e937,f4,negative).
example(e937,f5,positive).
example(e937,f6,positive).
example(e937,f7,negative).
example(e937,f8,positive).
example(e937,f9,positive).
example(e937,f10,negative).
example(e938,f1,positive).
example(e938,f2,negative).
example(e938,f3,positive).
example(e938,f4,positive).
example(e938,f5,negative).
example(e938,f6,positive).
example(e938,f7,positive).
example(e938,f8,positive).
example(e938,f9,negative).
example(e938,f10,positive).
example(e939,f1,negative).
example(e939,f2,positive).
example(e939,f3,positive).
example(e939,f4,negative).
example(e939,f5,positive).
example(e939,f6,negative).
example(e939,f7,positive).
example(e939,f8,positive).
example(e939,f9,positive).
example(e939,f10,positive).
example(e940,f1,negative).
example(e940,f2,positive).
example(e940,f3,negative).
example(e940,f4,negative).
example(e940,f5,negative).
example(e940,f6,positive).
example(e940,f7,positive).
example(e940,f8,negative).
example(e940,f9,negative).
example(e940,f10,positive).
example(e941,f1,negative).
example(e941,f2,positive).
example(e941,f3,positive).
example(e941,f4,positive).
example(e941,f5,negative).
example(e941,f6,negative).
example(e941,f7,negative).
example(e941,f8,negative).
example(e941,f9,negative).
example(e941,f10,negative).
example(e942,f1,negative).
example(e942,f2,positive).
example(e942,f3,negative).
example(e942,f4,positive).
example(e942,f5,negative).
example(e942,f6,positive).
example(e942,f7,negative).
example(e942,f8,negative).
example(e942,f9,negative).
example(e942,f10,positive).
example(e943,f1,positive).
example(e943,f2,positive).
example(e943,f3,positive).
example(e943,f4,positive).
example(e943,f5,positive).
example(e943,f6,negative).
example(e943,f7,negative).
example(e943,f8,negative).
example(e943,f9,negative).
example(e943,f10,positive).
example(e944,f1,negative).
example(e944,f2,positive).
example(e944,f3,negative).
example(e944,f4,positive).
example(e944,f5,negative).
example(e944,f6,positive).
example(e944,f7,negative).
example(e944,f8,negative).
example(e944,f9,positive).
example(e944,f10,positive).
example(e945,f1,negative).
example(e945,f2,positive).
example(e945,f3,negative).
example(e945,f4,negative).
example(e945,f5,positive).
example(e945,f6,negative).
example(e945,f7,positive).
example(e945,f8,negative).
example(e945,f9,positive).
example(e945,f10,negative).
example(e946,f1,positive).
example(e946,f2,positive).
example(e946,f3,negative).
example(e946,f4,positive).
example(e946,f5,negative).
example(e946,f6,negative).
example(e946,f7,negative).
example(e946,f8,positive).
example(e946,f9,negative).
example(e946,f10,positive).
example(e947,f1,positive).
example(e947,f2,negative).
example(e947,f3,negative).
example(e947,f4,negative).
example(e947,f5,positive).
example(e947,f6,positive).
example(e947,f7,negative).
example(e947,f8,negative).
example(e947,f9,positive).
example(e947,f10,negative).
example(e948,f1,positive).
example(e948,f2,positive).
example(e948,f3,negative).
example(e948,f4,positive).
example(e948,f5,negative).
example(e948,f6,negative).
example(e948,f7,negative).
example(e948,f8,negative).
example(e948,f9,negative).
example(e948,f10,negative).
example(e949,f1,negative).
example(e949,f2,negative).
example(e949,f3,positive).
example(e949,f4,negative).
example(e949,f5,positive).
example(e949,f6,positive).
example(e949,f7,negative).
example(e949,f8,negative).
example(e949,f9,negative).
example(e949,f10,positive).
example(e950,f1,negative).
example(e950,f2,negative).
example(e950,f3,negative).
example(e950,f4,negative).
example(e950,f5,negative).
example(e950,f6,negative).
example(e950,f7,negative).
example(e950,f8,negative).
example(e950,f9,positive).
example(e950,f10,negative).
example(e951,f1,negative).
example(e951,f2,positive).
example(e951,f3,negative).
example(e951,f4,positive).
example(e951,f5,negative).
example(e951,f6,positive).
example(e951,f7,positive).
example(e951,f8,positive).
example(e951,f9,negative).
example(e951,f10,positive).
example(e952,f1,negative).
example(e952,f2,negative).
example(e952,f3,negative).
example(e952,f4,negative).
example(e952,f5,positive).
example(e952,f6,positive).
example(e952,f7,negative).
example(e952,f8,negative).
example(e952,f9,positive).
example(e952,f10,positive).
example(e953,f1,negative).
example(e953,f2,positive).
example(e953,f3,negative).
example(e953,f4,positive).
example(e953,f5,positive).
example(e953,f6,negative).
example(e953,f7,positive).
example(e953,f8,positive).
example(e953,f9,negative).
example(e953,f10,negative).
example(e954,f1,positive).
example(e954,f2,positive).
example(e954,f3,positive).
example(e954,f4,positive).
example(e954,f5,positive).
example(e954,f6,positive).
example(e954,f7,positive).
example(e954,f8,negative).
example(e954,f9,positive).
example(e954,f10,positive).
example(e955,f1,negative).
example(e955,f2,positive).
example(e955,f3,positive).
example(e955,f4,negative).
example(e955,f5,negative).
example(e955,f6,positive).
example(e955,f7,negative).
example(e955,f8,negative).
example(e955,f9,positive).
example(e955,f10,positive).
example(e956,f1,positive).
example(e956,f2,positive).
example(e956,f3,negative).
example(e956,f4,negative).
example(e956,f5,positive).
example(e956,f6,negative).
example(e956,f7,negative).
example(e956,f8,negative).
example(e956,f9,negative).
example(e956,f10,negative).
example(e957,f1,negative).
example(e957,f2,negative).
example(e957,f3,negative).
example(e957,f4,negative).
example(e957,f5,negative).
example(e957,f6,positive).
example(e957,f7,negative).
example(e957,f8,positive).
example(e957,f9,negative).
example(e957,f10,positive).
example(e958,f1,positive).
example(e958,f2,positive).
example(e958,f3,negative).
example(e958,f4,negative).
example(e958,f5,positive).
example(e958,f6,positive).
example(e958,f7,negative).
example(e958,f8,negative).
example(e958,f9,negative).
example(e958,f10,negative).
example(e959,f1,positive).
example(e959,f2,positive).
example(e959,f3,negative).
example(e959,f4,positive).
example(e959,f5,positive).
example(e959,f6,negative).
example(e959,f7,negative).
example(e959,f8,negative).
example(e959,f9,positive).
example(e959,f10,positive).
example(e960,f1,positive).
example(e960,f2,negative).
example(e960,f3,positive).
example(e960,f4,positive).
example(e960,f5,negative).
example(e960,f6,negative).
example(e960,f7,negative).
example(e960,f8,positive).
example(e960,f9,positive).
example(e960,f10,positive).
example(e961,f1,negative).
example(e961,f2,positive).
example(e961,f3,negative).
example(e961,f4,positive).
example(e961,f5,negative).
example(e961,f6,positive).
example(e961,f7,positive).
example(e961,f8,negative).
example(e961,f9,positive).
example(e961,f10,negative).
example(e962,f1,negative).
example(e962,f2,positive).
example(e962,f3,negative).
example(e962,f4,positive).
example(e962,f5,negative).
example(e962,f6,negative).
example(e962,f7,positive).
example(e962,f8,positive).
example(e962,f9,negative).
example(e962,f10,positive).
example(e963,f1,negative).
example(e963,f2,negative).
example(e963,f3,positive).
example(e963,f4,negative).
example(e963,f5,positive).
example(e963,f6,positive).
example(e963,f7,negative).
example(e963,f8,negative).
example(e963,f9,negative).
example(e963,f10,negative).
example(e964,f1,negative).
example(e964,f2,positive).
example(e964,f3,positive).
example(e964,f4,negative).
example(e964,f5,negative).
example(e964,f6,positive).
example(e964,f7,positive).
example(e964,f8,positive).
example(e964,f9,positive).
example(e964,f10,positive).
example(e965,f1,negative).
example(e965,f2,positive).
example(e965,f3,positive).
example(e965,f4,positive).
example(e965,f5,positive).
example(e965,f6,negative).
example(e965,f7,positive).
example(e965,f8,negative).
example(e965,f9,positive).
example(e965,f10,positive).
example(e966,f1,positive).
example(e966,f2,negative).
example(e966,f3,positive).
example(e966,f4,positive).
example(e966,f5,negative).
example(e966,f6,positive).
example(e966,f7,negative).
example(e966,f8,positive).
example(e966,f9,positive).
example(e966,f10,negative).
example(e967,f1,positive).
example(e967,f2,positive).
example(e967,f3,negative).
example(e967,f4,positive).
example(e967,f5,negative).
example(e967,f6,positive).
example(e967,f7,negative).
example(e967,f8,negative).
example(e967,f9,positive).
example(e967,f10,positive).
example(e968,f1,negative).
example(e968,f2,positive).
example(e968,f3,positive).
example(e968,f4,negative).
example(e968,f5,positive).
example(e968,f6,positive).
example(e968,f7,positive).
example(e968,f8,negative).
example(e968,f9,positive).
example(e968,f10,positive).
example(e969,f1,positive).
example(e969,f2,negative).
example(e969,f3,positive).
example(e969,f4,positive).
example(e969,f5,negative).
example(e969,f6,positive).
example(e969,f7,negative).
example(e969,f8,positive).
example(e969,f9,negative).
example(e969,f10,positive).
example(e970,f1,negative).
example(e970,f2,negative).
example(e970,f3,negative).
example(e970,f4,positive).
example(e970,f5,positive).
example(e970,f6,positive).
example(e970,f7,positive).
example(e970,f8,positive).
example(e970,f9,negative).
example(e970,f10,negative).
example(e971,f1,positive).
example(e971,f2,positive).
example(e971,f3,negative).
example(e971,f4,negative).
example(e971,f5,positive).
example(e971,f6,negative).
example(e971,f7,positive).
example(e971,f8,negative).
example(e971,f9,positive).
example(e971,f10,negative).
example(e972,f1,positive).
example(e972,f2,negative).
example(e972,f3,negative).
example(e972,f4,positive).
example(e972,f5,negative).
example(e972,f6,positive).
example(e972,f7,positive).
example(e972,f8,negative).
example(e972,f9,negative).
example(e972,f10,positive).
example(e973,f1,positive).
example(e973,f2,positive).
example(e973,f3,positive).
example(e973,f4,negative).
example(e973,f5,positive).
example(e973,f6,positive).
example(e973,f7,positive).
example(e973,f8,positive).
example(e973,f9,negative).
example(e973,f10,positive).
example(e974,f1,negative).
example(e974,f2,negative).
example(e974,f3,negative).
example(e974,f4,positive).
example(e974,f5,negative).
example(e974,f6,negative).
example(e974,f7,positive).
example(e974,f8,positive).
example(e974,f9,negative).
example(e974,f10,negative).
example(e975,f1,negative).
example(e975,f2,negative).
example(e975,f3,negative).
example(e975,f4,negative).
example(e975,f5,negative).
example(e975,f6,negative).
example(e975,f7,positive).
example(e975,f8,negative).
example(e975,f9,negative).
example(e975,f10,negative).
example(e976,f1,positive).
example(e976,f2,negative).
example(e976,f3,positive).
example(e976,f4,negative).
example(e976,f5,negative).
example(e976,f6,positive).
example(e976,f7,negative).
example(e976,f8,negative).
example(e976,f9,negative).
example(e976,f10,positive).
example(e977,f1,positive).
example(e977,f2,positive).
example(e977,f3,positive).
example(e977,f4,positive).
example(e977,f5,positive).
example(e977,f6,negative).
example(e977,f7,negative).
example(e977,f8,positive).
example(e977,f9,negative).
example(e977,f10,negative).
example(e978,f1,positive).
example(e978,f2,positive).
example(e978,f3,negative).
example(e978,f4,positive).
example(e978,f5,negative).
example(e978,f6,negative).
example(e978,f7,positive).
example(e978,f8,negative).
example(e978,f9,negative).
example(e978,f10,negative).
example(e979,f1,negative).
example(e979,f2,positive).
example(e979,f3,positive).
example(e979,f4,positive).
example(e979,f5,positive).
example(e979,f6,positive).
example(e979,f7,positive).
example(e979,f8,positive).
example(e979,f9,negative).
example(e979,f10,negative).
example(e980,f1,negative).
example(e980,f2,positive).
example(e980,f3,positive).
example(e980,f4,positive).
example(e980,f5,positive).
example(e980,f6,negative).
example(e980,f7,positive).
example(e980,f8,negative).
example(e980,f9,positive).
example(e980,f10,negative).
example(e981,f1,positive).
example(e981,f2,positive).
example(e981,f3,positive).
example(e981,f4,positive).
example(e981,f5,negative).
example(e981,f6,negative).
example(e981,f7,positive).
example(e981,f8,negative).
example(e981,f9,positive).
example(e981,f10,positive).
example(e982,f1,negative).
example(e982,f2,negative).
example(e982,f3,positive).
example(e982,f4,positive).
example(e982,f5,positive).
example(e982,f6,negative).
example(e982,f7,negative).
example(e982,f8,positive).
example(e982,f9,negative).
example(e982,f10,negative).
example(e983,f1,positive).
example(e983,f2,positive).
example(e983,f3,positive).
example(e983,f4,positive).
example(e983,f5,positive).
example(e983,f6,positive).
example(e983,f7,negative).
example(e983,f8,negative).
example(e983,f9,negative).
example(e983,f10,negative).
example(e984,f1,negative).
example(e984,f2,positive).
example(e984,f3,negative).
example(e984,f4,positive).
example(e984,f5,negative).
example(e984,f6,positive).
example(e984,f7,negative).
example(e984,f8,positive).
example(e984,f9,negative).
example(e984,f10,negative).
example(e985,f1,positive).
example(e985,f2,negative).
example(e985,f3,negative).
example(e985,f4,positive).
example(e985,f5,negative).
example(e985,f6,negative).
example(e985,f7,negative).
example(e985,f8,positive).
example(e985,f9,negative).
example(e985,f10,positive).
example(e986,f1,negative).
example(e986,f2,negative).
example(e986,f3,negative).
example(e986,f4,positive).
example(e986,f5,negative).
example(e986,f6,positive).
example(e986,f7,negative).
example(e986,f8,negative).
example(e986,f9,negative).
example(e986,f10,positive).
example(e987,f1,negative).
example(e987,f2,negative).
example(e987,f3,negative).
example(e987,f4,negative).
example(e987,f5,negative).
example(e987,f6,negative).
example(e987,f7,positive).
example(e987,f8,negative).
example(e987,f9,positive).
example(e987,f10,positive).
example(e988,f1,negative).
example(e988,f2,positive).
example(e988,f3,negative).
example(e988,f4,positive).
example(e988,f5,positive).
example(e988,f6,negative).
example(e988,f7,negative).
example(e988,f8,positive).
example(e988,f9,positive).
example(e988,f10,positive).
example(e989,f1,negative).
example(e989,f2,negative).
example(e989,f3,positive).
example(e989,f4,positive).
example(e989,f5,positive).
example(e989,f6,positive).
example(e989,f7,negative).
example(e989,f8,negative).
example(e989,f9,negative).
example(e989,f10,negative).
example(e990,f1,positive).
example(e990,f2,negative).
example(e990,f3,negative).
example(e990,f4,positive).
example(e990,f5,positive).
example(e990,f6,negative).
example(e990,f7,positive).
example(e990,f8,negative).
example(e990,f9,negative).
example(e990,f10,positive).
example(e991,f1,positive).
example(e991,f2,positive).
example(e991,f3,negative).
example(e991,f4,positive).
example(e991,f5,positive).
example(e991,f6,negative).
example(e991,f7,positive).
example(e991,f8,positive).
example(e991,f9,positive).
example(e991,f10,negative).
example(e992,f1,negative).
example(e992,f2,positive).
example(e992,f3,negative).
example(e992,f4,positive).
example(e992,f5,negative).
example(e992,f6,negative).
example(e992,f7,negative).
example(e992,f8,negative).
example(e992,f9,positive).
example(e992,f10,negative).
example(e993,f1,negative).
example(e993,f2,negative).
example(e993,f3,negative).
example(e993,f4,negative).
example(e993,f5,negative).
example(e993,f6,negative).
example(e993,f7,negative).
example(e993,f8,positive).
example(e993,f9,positive).
example(e993,f10,positive).
example(e994,f1,positive).
example(e994,f2,positive).
example(e994,f3,negative).
example(e994,f4,negative).
example(e994,f5,positive).
example(e994,f6,positive).
example(e994,f7,negative).
example(e994,f8,negative).
example(e994,f9,positive).
example(e994,f10,positive).
example(e995,f1,negative).
example(e995,f2,positive).
example(e995,f3,positive).
example(e995,f4,negative).
example(e995,f5,positive).
example(e995,f6,negative).
example(e995,f7,negative).
example(e995,f8,positive).
example(e995,f9,positive).
example(e995,f10,positive).
example(e996,f1,negative).
example(e996,f2,positive).
example(e996,f3,negative).
example(e996,f4,negative).
example(e996,f5,negative).
example(e996,f6,positive).
example(e996,f7,negative).
example(e996,f8,negative).
example(e996,f9,positive).
example(e996,f10,positive).
example(e997,f1,positive).
example(e997,f2,negative).
example(e997,f3,negative).
example(e997,f4,negative).
example(e997,f5,negative).
example(e997,f6,positive).
example(e997,f7,negative).
example(e997,f8,positive).
example(e997,f9,positive).
example(e997,f10,negative).
example(e998,f1,positive).
example(e998,f2,negative).
example(e998,f3,negative).
example(e998,f4,positive).
example(e998,f5,positive).
example(e998,f6,positive).
example(e998,f7,positive).
example(e998,f8,negative).
example(e998,f9,positive).
example(e998,f10,positive).
example(e999,f1,negative).
example(e999,f2,negative).
example(e999,f3,positive).
example(e999,f4,negative).
example(e999,f5,negative).
example(e999,f6,negative).
example(e999,f7,positive).
example(e999,f8,positive).
example(e999,f9,negative).
example(e999,f10,negative).
example(e1000,f1,negative).
example(e1000,f2,negative).
example(e1000,f3,positive).
example(e1000,f4,negative).
example(e1000,f5,positive).
example(e1000,f6,positive).
example(e1000,f7,negative).
example(e1000,f8,negative).
example(e1000,f9,positive).
example(e1000,f10,negative).
example(e1001,f1,negative).
example(e1001,f2,positive).
example(e1001,f3,positive).
example(e1001,f4,positive).
example(e1001,f5,positive).
example(e1001,f6,positive).
example(e1001,f7,positive).
example(e1001,f8,negative).
example(e1001,f9,negative).
example(e1001,f10,negative).
example(e1002,f1,positive).
example(e1002,f2,positive).
example(e1002,f3,negative).
example(e1002,f4,negative).
example(e1002,f5,positive).
example(e1002,f6,negative).
example(e1002,f7,negative).
example(e1002,f8,positive).
example(e1002,f9,negative).
example(e1002,f10,negative).
example(e1003,f1,negative).
example(e1003,f2,positive).
example(e1003,f3,negative).
example(e1003,f4,positive).
example(e1003,f5,negative).
example(e1003,f6,positive).
example(e1003,f7,positive).
example(e1003,f8,negative).
example(e1003,f9,negative).
example(e1003,f10,negative).
example(e1004,f1,negative).
example(e1004,f2,negative).
example(e1004,f3,positive).
example(e1004,f4,positive).
example(e1004,f5,negative).
example(e1004,f6,positive).
example(e1004,f7,positive).
example(e1004,f8,negative).
example(e1004,f9,positive).
example(e1004,f10,positive).
example(e1005,f1,negative).
example(e1005,f2,positive).
example(e1005,f3,positive).
example(e1005,f4,negative).
example(e1005,f5,negative).
example(e1005,f6,positive).
example(e1005,f7,negative).
example(e1005,f8,negative).
example(e1005,f9,negative).
example(e1005,f10,positive).
example(e1006,f1,positive).
example(e1006,f2,positive).
example(e1006,f3,positive).
example(e1006,f4,negative).
example(e1006,f5,positive).
example(e1006,f6,negative).
example(e1006,f7,negative).
example(e1006,f8,negative).
example(e1006,f9,negative).
example(e1006,f10,positive).
example(e1007,f1,positive).
example(e1007,f2,negative).
example(e1007,f3,negative).
example(e1007,f4,negative).
example(e1007,f5,positive).
example(e1007,f6,positive).
example(e1007,f7,positive).
example(e1007,f8,negative).
example(e1007,f9,negative).
example(e1007,f10,positive).
example(e1008,f1,positive).
example(e1008,f2,negative).
example(e1008,f3,negative).
example(e1008,f4,negative).
example(e1008,f5,positive).
example(e1008,f6,negative).
example(e1008,f7,positive).
example(e1008,f8,positive).
example(e1008,f9,positive).
example(e1008,f10,positive).
example(e1009,f1,negative).
example(e1009,f2,positive).
example(e1009,f3,negative).
example(e1009,f4,negative).
example(e1009,f5,positive).
example(e1009,f6,positive).
example(e1009,f7,positive).
example(e1009,f8,positive).
example(e1009,f9,negative).
example(e1009,f10,negative).
example(e1010,f1,positive).
example(e1010,f2,negative).
example(e1010,f3,negative).
example(e1010,f4,negative).
example(e1010,f5,negative).
example(e1010,f6,negative).
example(e1010,f7,negative).
example(e1010,f8,positive).
example(e1010,f9,positive).
example(e1010,f10,negative).
example(e1011,f1,negative).
example(e1011,f2,negative).
example(e1011,f3,negative).
example(e1011,f4,positive).
example(e1011,f5,positive).
example(e1011,f6,negative).
example(e1011,f7,negative).
example(e1011,f8,negative).
example(e1011,f9,positive).
example(e1011,f10,positive).
example(e1012,f1,negative).
example(e1012,f2,positive).
example(e1012,f3,positive).
example(e1012,f4,positive).
example(e1012,f5,negative).
example(e1012,f6,positive).
example(e1012,f7,negative).
example(e1012,f8,negative).
example(e1012,f9,negative).
example(e1012,f10,negative).
example(e1013,f1,negative).
example(e1013,f2,positive).
example(e1013,f3,negative).
example(e1013,f4,positive).
example(e1013,f5,negative).
example(e1013,f6,negative).
example(e1013,f7,negative).
example(e1013,f8,positive).
example(e1013,f9,negative).
example(e1013,f10,negative).
example(e1014,f1,negative).
example(e1014,f2,negative).
example(e1014,f3,positive).
example(e1014,f4,negative).
example(e1014,f5,negative).
example(e1014,f6,positive).
example(e1014,f7,positive).
example(e1014,f8,negative).
example(e1014,f9,negative).
example(e1014,f10,negative).
example(e1015,f1,negative).
example(e1015,f2,positive).
example(e1015,f3,positive).
example(e1015,f4,positive).
example(e1015,f5,negative).
example(e1015,f6,positive).
example(e1015,f7,negative).
example(e1015,f8,negative).
example(e1015,f9,positive).
example(e1015,f10,positive).
example(e1016,f1,positive).
example(e1016,f2,negative).
example(e1016,f3,positive).
example(e1016,f4,positive).
example(e1016,f5,positive).
example(e1016,f6,positive).
example(e1016,f7,negative).
example(e1016,f8,positive).
example(e1016,f9,negative).
example(e1016,f10,negative).
example(e1017,f1,negative).
example(e1017,f2,positive).
example(e1017,f3,positive).
example(e1017,f4,negative).
example(e1017,f5,positive).
example(e1017,f6,negative).
example(e1017,f7,positive).
example(e1017,f8,positive).
example(e1017,f9,negative).
example(e1017,f10,negative).
example(e1018,f1,negative).
example(e1018,f2,negative).
example(e1018,f3,positive).
example(e1018,f4,positive).
example(e1018,f5,negative).
example(e1018,f6,positive).
example(e1018,f7,negative).
example(e1018,f8,positive).
example(e1018,f9,positive).
example(e1018,f10,positive).
example(e1019,f1,negative).
example(e1019,f2,negative).
example(e1019,f3,positive).
example(e1019,f4,positive).
example(e1019,f5,negative).
example(e1019,f6,positive).
example(e1019,f7,positive).
example(e1019,f8,negative).
example(e1019,f9,negative).
example(e1019,f10,negative).
example(e1020,f1,negative).
example(e1020,f2,positive).
example(e1020,f3,positive).
example(e1020,f4,positive).
example(e1020,f5,positive).
example(e1020,f6,positive).
example(e1020,f7,negative).
example(e1020,f8,positive).
example(e1020,f9,positive).
example(e1020,f10,positive).
example(e1021,f1,negative).
example(e1021,f2,positive).
example(e1021,f3,positive).
example(e1021,f4,positive).
example(e1021,f5,negative).
example(e1021,f6,positive).
example(e1021,f7,negative).
example(e1021,f8,negative).
example(e1021,f9,negative).
example(e1021,f10,positive).
example(e1022,f1,positive).
example(e1022,f2,negative).
example(e1022,f3,negative).
example(e1022,f4,positive).
example(e1022,f5,positive).
example(e1022,f6,negative).
example(e1022,f7,positive).
example(e1022,f8,positive).
example(e1022,f9,negative).
example(e1022,f10,positive).
example(e1023,f1,negative).
example(e1023,f2,negative).
example(e1023,f3,negative).
example(e1023,f4,positive).
example(e1023,f5,positive).
example(e1023,f6,negative).
example(e1023,f7,positive).
example(e1023,f8,negative).
example(e1023,f9,negative).
example(e1023,f10,positive).
example(e1024,f1,positive).
example(e1024,f2,positive).
example(e1024,f3,negative).
example(e1024,f4,negative).
example(e1024,f5,positive).
example(e1024,f6,positive).
example(e1024,f7,positive).
example(e1024,f8,negative).
example(e1024,f9,negative).
example(e1024,f10,positive).
example(e1025,f1,negative).
example(e1025,f2,negative).
example(e1025,f3,negative).
example(e1025,f4,positive).
example(e1025,f5,positive).
example(e1025,f6,positive).
example(e1025,f7,positive).
example(e1025,f8,negative).
example(e1025,f9,positive).
example(e1025,f10,positive).
example(e1026,f1,positive).
example(e1026,f2,negative).
example(e1026,f3,negative).
example(e1026,f4,positive).
example(e1026,f5,positive).
example(e1026,f6,positive).
example(e1026,f7,positive).
example(e1026,f8,negative).
example(e1026,f9,negative).
example(e1026,f10,negative).
example(e1027,f1,negative).
example(e1027,f2,positive).
example(e1027,f3,negative).
example(e1027,f4,negative).
example(e1027,f5,negative).
example(e1027,f6,negative).
example(e1027,f7,positive).
example(e1027,f8,positive).
example(e1027,f9,positive).
example(e1027,f10,positive).
example(e1028,f1,positive).
example(e1028,f2,positive).
example(e1028,f3,positive).
example(e1028,f4,positive).
example(e1028,f5,negative).
example(e1028,f6,negative).
example(e1028,f7,negative).
example(e1028,f8,positive).
example(e1028,f9,positive).
example(e1028,f10,negative).
example(e1029,f1,negative).
example(e1029,f2,negative).
example(e1029,f3,positive).
example(e1029,f4,negative).
example(e1029,f5,negative).
example(e1029,f6,positive).
example(e1029,f7,negative).
example(e1029,f8,positive).
example(e1029,f9,positive).
example(e1029,f10,negative).
example(e1030,f1,negative).
example(e1030,f2,negative).
example(e1030,f3,negative).
example(e1030,f4,positive).
example(e1030,f5,positive).
example(e1030,f6,positive).
example(e1030,f7,positive).
example(e1030,f8,positive).
example(e1030,f9,positive).
example(e1030,f10,positive).
example(e1031,f1,positive).
example(e1031,f2,negative).
example(e1031,f3,positive).
example(e1031,f4,positive).
example(e1031,f5,negative).
example(e1031,f6,positive).
example(e1031,f7,negative).
example(e1031,f8,negative).
example(e1031,f9,negative).
example(e1031,f10,positive).
example(e1032,f1,positive).
example(e1032,f2,negative).
example(e1032,f3,positive).
example(e1032,f4,positive).
example(e1032,f5,positive).
example(e1032,f6,negative).
example(e1032,f7,positive).
example(e1032,f8,positive).
example(e1032,f9,positive).
example(e1032,f10,negative).
example(e1033,f1,positive).
example(e1033,f2,positive).
example(e1033,f3,positive).
example(e1033,f4,positive).
example(e1033,f5,negative).
example(e1033,f6,positive).
example(e1033,f7,negative).
example(e1033,f8,positive).
example(e1033,f9,positive).
example(e1033,f10,negative).
example(e1034,f1,positive).
example(e1034,f2,positive).
example(e1034,f3,positive).
example(e1034,f4,positive).
example(e1034,f5,positive).
example(e1034,f6,positive).
example(e1034,f7,positive).
example(e1034,f8,positive).
example(e1034,f9,negative).
example(e1034,f10,negative).
example(e1035,f1,negative).
example(e1035,f2,positive).
example(e1035,f3,negative).
example(e1035,f4,positive).
example(e1035,f5,negative).
example(e1035,f6,negative).
example(e1035,f7,negative).
example(e1035,f8,positive).
example(e1035,f9,negative).
example(e1035,f10,positive).
example(e1036,f1,positive).
example(e1036,f2,negative).
example(e1036,f3,negative).
example(e1036,f4,negative).
example(e1036,f5,negative).
example(e1036,f6,positive).
example(e1036,f7,positive).
example(e1036,f8,negative).
example(e1036,f9,positive).
example(e1036,f10,positive).
example(e1037,f1,negative).
example(e1037,f2,negative).
example(e1037,f3,negative).
example(e1037,f4,negative).
example(e1037,f5,positive).
example(e1037,f6,negative).
example(e1037,f7,negative).
example(e1037,f8,negative).
example(e1037,f9,negative).
example(e1037,f10,negative).
example(e1038,f1,negative).
example(e1038,f2,positive).
example(e1038,f3,negative).
example(e1038,f4,positive).
example(e1038,f5,negative).
example(e1038,f6,negative).
example(e1038,f7,negative).
example(e1038,f8,positive).
example(e1038,f9,positive).
example(e1038,f10,negative).
example(e1039,f1,positive).
example(e1039,f2,negative).
example(e1039,f3,negative).
example(e1039,f4,negative).
example(e1039,f5,negative).
example(e1039,f6,positive).
example(e1039,f7,positive).
example(e1039,f8,positive).
example(e1039,f9,positive).
example(e1039,f10,positive).
example(e1040,f1,negative).
example(e1040,f2,positive).
example(e1040,f3,negative).
example(e1040,f4,positive).
example(e1040,f5,positive).
example(e1040,f6,positive).
example(e1040,f7,negative).
example(e1040,f8,positive).
example(e1040,f9,positive).
example(e1040,f10,positive).
example(e1041,f1,positive).
example(e1041,f2,negative).
example(e1041,f3,positive).
example(e1041,f4,negative).
example(e1041,f5,negative).
example(e1041,f6,positive).
example(e1041,f7,positive).
example(e1041,f8,negative).
example(e1041,f9,positive).
example(e1041,f10,negative).
example(e1042,f1,positive).
example(e1042,f2,negative).
example(e1042,f3,negative).
example(e1042,f4,negative).
example(e1042,f5,negative).
example(e1042,f6,positive).
example(e1042,f7,negative).
example(e1042,f8,negative).
example(e1042,f9,positive).
example(e1042,f10,negative).
example(e1043,f1,negative).
example(e1043,f2,negative).
example(e1043,f3,negative).
example(e1043,f4,negative).
example(e1043,f5,negative).
example(e1043,f6,negative).
example(e1043,f7,positive).
example(e1043,f8,negative).
example(e1043,f9,positive).
example(e1043,f10,negative).
example(e1044,f1,negative).
example(e1044,f2,negative).
example(e1044,f3,positive).
example(e1044,f4,positive).
example(e1044,f5,negative).
example(e1044,f6,positive).
example(e1044,f7,negative).
example(e1044,f8,positive).
example(e1044,f9,negative).
example(e1044,f10,negative).
example(e1045,f1,positive).
example(e1045,f2,positive).
example(e1045,f3,positive).
example(e1045,f4,negative).
example(e1045,f5,negative).
example(e1045,f6,negative).
example(e1045,f7,negative).
example(e1045,f8,negative).
example(e1045,f9,positive).
example(e1045,f10,negative).
example(e1046,f1,negative).
example(e1046,f2,positive).
example(e1046,f3,negative).
example(e1046,f4,positive).
example(e1046,f5,negative).
example(e1046,f6,negative).
example(e1046,f7,negative).
example(e1046,f8,negative).
example(e1046,f9,negative).
example(e1046,f10,negative).
example(e1047,f1,negative).
example(e1047,f2,positive).
example(e1047,f3,negative).
example(e1047,f4,positive).
example(e1047,f5,negative).
example(e1047,f6,negative).
example(e1047,f7,positive).
example(e1047,f8,positive).
example(e1047,f9,positive).
example(e1047,f10,negative).
example(e1048,f1,positive).
example(e1048,f2,negative).
example(e1048,f3,negative).
example(e1048,f4,negative).
example(e1048,f5,positive).
example(e1048,f6,positive).
example(e1048,f7,negative).
example(e1048,f8,negative).
example(e1048,f9,negative).
example(e1048,f10,positive).
example(e1049,f1,negative).
example(e1049,f2,negative).
example(e1049,f3,positive).
example(e1049,f4,negative).
example(e1049,f5,negative).
example(e1049,f6,negative).
example(e1049,f7,positive).
example(e1049,f8,negative).
example(e1049,f9,negative).
example(e1049,f10,positive).
example(e1050,f1,negative).
example(e1050,f2,negative).
example(e1050,f3,negative).
example(e1050,f4,positive).
example(e1050,f5,positive).
example(e1050,f6,positive).
example(e1050,f7,negative).
example(e1050,f8,negative).
example(e1050,f9,positive).
example(e1050,f10,negative).
example(e1051,f1,positive).
example(e1051,f2,negative).
example(e1051,f3,positive).
example(e1051,f4,positive).
example(e1051,f5,positive).
example(e1051,f6,negative).
example(e1051,f7,positive).
example(e1051,f8,positive).
example(e1051,f9,negative).
example(e1051,f10,negative).
example(e1052,f1,positive).
example(e1052,f2,negative).
example(e1052,f3,positive).
example(e1052,f4,negative).
example(e1052,f5,positive).
example(e1052,f6,positive).
example(e1052,f7,negative).
example(e1052,f8,negative).
example(e1052,f9,positive).
example(e1052,f10,negative).
example(e1053,f1,positive).
example(e1053,f2,negative).
example(e1053,f3,positive).
example(e1053,f4,positive).
example(e1053,f5,negative).
example(e1053,f6,positive).
example(e1053,f7,negative).
example(e1053,f8,negative).
example(e1053,f9,positive).
example(e1053,f10,positive).
example(e1054,f1,positive).
example(e1054,f2,negative).
example(e1054,f3,negative).
example(e1054,f4,positive).
example(e1054,f5,negative).
example(e1054,f6,negative).
example(e1054,f7,negative).
example(e1054,f8,negative).
example(e1054,f9,negative).
example(e1054,f10,positive).
example(e1055,f1,negative).
example(e1055,f2,positive).
example(e1055,f3,positive).
example(e1055,f4,negative).
example(e1055,f5,positive).
example(e1055,f6,positive).
example(e1055,f7,positive).
example(e1055,f8,negative).
example(e1055,f9,negative).
example(e1055,f10,negative).
example(e1056,f1,negative).
example(e1056,f2,positive).
example(e1056,f3,positive).
example(e1056,f4,positive).
example(e1056,f5,positive).
example(e1056,f6,positive).
example(e1056,f7,negative).
example(e1056,f8,negative).
example(e1056,f9,negative).
example(e1056,f10,negative).
example(e1057,f1,positive).
example(e1057,f2,negative).
example(e1057,f3,positive).
example(e1057,f4,negative).
example(e1057,f5,negative).
example(e1057,f6,negative).
example(e1057,f7,negative).
example(e1057,f8,negative).
example(e1057,f9,negative).
example(e1057,f10,negative).
example(e1058,f1,negative).
example(e1058,f2,positive).
example(e1058,f3,negative).
example(e1058,f4,positive).
example(e1058,f5,negative).
example(e1058,f6,negative).
example(e1058,f7,negative).
example(e1058,f8,positive).
example(e1058,f9,positive).
example(e1058,f10,positive).
example(e1059,f1,positive).
example(e1059,f2,negative).
example(e1059,f3,positive).
example(e1059,f4,negative).
example(e1059,f5,negative).
example(e1059,f6,negative).
example(e1059,f7,negative).
example(e1059,f8,positive).
example(e1059,f9,positive).
example(e1059,f10,positive).
example(e1060,f1,positive).
example(e1060,f2,negative).
example(e1060,f3,positive).
example(e1060,f4,negative).
example(e1060,f5,positive).
example(e1060,f6,negative).
example(e1060,f7,positive).
example(e1060,f8,negative).
example(e1060,f9,positive).
example(e1060,f10,positive).
example(e1061,f1,positive).
example(e1061,f2,negative).
example(e1061,f3,negative).
example(e1061,f4,positive).
example(e1061,f5,negative).
example(e1061,f6,positive).
example(e1061,f7,positive).
example(e1061,f8,negative).
example(e1061,f9,positive).
example(e1061,f10,negative).
example(e1062,f1,positive).
example(e1062,f2,positive).
example(e1062,f3,positive).
example(e1062,f4,positive).
example(e1062,f5,positive).
example(e1062,f6,positive).
example(e1062,f7,positive).
example(e1062,f8,positive).
example(e1062,f9,positive).
example(e1062,f10,positive).
example(e1063,f1,negative).
example(e1063,f2,positive).
example(e1063,f3,negative).
example(e1063,f4,negative).
example(e1063,f5,negative).
example(e1063,f6,positive).
example(e1063,f7,negative).
example(e1063,f8,negative).
example(e1063,f9,negative).
example(e1063,f10,positive).
example(e1064,f1,negative).
example(e1064,f2,negative).
example(e1064,f3,positive).
example(e1064,f4,positive).
example(e1064,f5,positive).
example(e1064,f6,negative).
example(e1064,f7,positive).
example(e1064,f8,negative).
example(e1064,f9,positive).
example(e1064,f10,negative).
example(e1065,f1,negative).
example(e1065,f2,negative).
example(e1065,f3,positive).
example(e1065,f4,positive).
example(e1065,f5,negative).
example(e1065,f6,negative).
example(e1065,f7,positive).
example(e1065,f8,negative).
example(e1065,f9,positive).
example(e1065,f10,positive).
example(e1066,f1,positive).
example(e1066,f2,positive).
example(e1066,f3,positive).
example(e1066,f4,positive).
example(e1066,f5,positive).
example(e1066,f6,negative).
example(e1066,f7,negative).
example(e1066,f8,negative).
example(e1066,f9,positive).
example(e1066,f10,negative).
example(e1067,f1,negative).
example(e1067,f2,positive).
example(e1067,f3,positive).
example(e1067,f4,negative).
example(e1067,f5,positive).
example(e1067,f6,positive).
example(e1067,f7,negative).
example(e1067,f8,negative).
example(e1067,f9,negative).
example(e1067,f10,positive).
example(e1068,f1,positive).
example(e1068,f2,positive).
example(e1068,f3,positive).
example(e1068,f4,positive).
example(e1068,f5,positive).
example(e1068,f6,negative).
example(e1068,f7,negative).
example(e1068,f8,positive).
example(e1068,f9,positive).
example(e1068,f10,positive).
example(e1069,f1,negative).
example(e1069,f2,positive).
example(e1069,f3,positive).
example(e1069,f4,negative).
example(e1069,f5,positive).
example(e1069,f6,negative).
example(e1069,f7,negative).
example(e1069,f8,positive).
example(e1069,f9,positive).
example(e1069,f10,negative).
example(e1070,f1,negative).
example(e1070,f2,negative).
example(e1070,f3,positive).
example(e1070,f4,positive).
example(e1070,f5,negative).
example(e1070,f6,positive).
example(e1070,f7,positive).
example(e1070,f8,negative).
example(e1070,f9,negative).
example(e1070,f10,positive).
example(e1071,f1,positive).
example(e1071,f2,negative).
example(e1071,f3,negative).
example(e1071,f4,positive).
example(e1071,f5,positive).
example(e1071,f6,positive).
example(e1071,f7,positive).
example(e1071,f8,positive).
example(e1071,f9,negative).
example(e1071,f10,negative).
example(e1072,f1,negative).
example(e1072,f2,negative).
example(e1072,f3,negative).
example(e1072,f4,positive).
example(e1072,f5,positive).
example(e1072,f6,negative).
example(e1072,f7,positive).
example(e1072,f8,positive).
example(e1072,f9,negative).
example(e1072,f10,positive).
example(e1073,f1,negative).
example(e1073,f2,negative).
example(e1073,f3,positive).
example(e1073,f4,negative).
example(e1073,f5,negative).
example(e1073,f6,positive).
example(e1073,f7,positive).
example(e1073,f8,positive).
example(e1073,f9,negative).
example(e1073,f10,positive).
example(e1074,f1,positive).
example(e1074,f2,negative).
example(e1074,f3,positive).
example(e1074,f4,positive).
example(e1074,f5,positive).
example(e1074,f6,positive).
example(e1074,f7,positive).
example(e1074,f8,positive).
example(e1074,f9,negative).
example(e1074,f10,positive).
example(e1075,f1,positive).
example(e1075,f2,positive).
example(e1075,f3,negative).
example(e1075,f4,negative).
example(e1075,f5,negative).
example(e1075,f6,negative).
example(e1075,f7,positive).
example(e1075,f8,positive).
example(e1075,f9,negative).
example(e1075,f10,negative).
example(e1076,f1,positive).
example(e1076,f2,positive).
example(e1076,f3,positive).
example(e1076,f4,negative).
example(e1076,f5,negative).
example(e1076,f6,negative).
example(e1076,f7,positive).
example(e1076,f8,negative).
example(e1076,f9,positive).
example(e1076,f10,negative).
example(e1077,f1,negative).
example(e1077,f2,positive).
example(e1077,f3,negative).
example(e1077,f4,positive).
example(e1077,f5,negative).
example(e1077,f6,positive).
example(e1077,f7,positive).
example(e1077,f8,positive).
example(e1077,f9,positive).
example(e1077,f10,positive).
example(e1078,f1,negative).
example(e1078,f2,negative).
example(e1078,f3,positive).
example(e1078,f4,negative).
example(e1078,f5,negative).
example(e1078,f6,positive).
example(e1078,f7,negative).
example(e1078,f8,positive).
example(e1078,f9,positive).
example(e1078,f10,positive).
example(e1079,f1,negative).
example(e1079,f2,positive).
example(e1079,f3,negative).
example(e1079,f4,negative).
example(e1079,f5,negative).
example(e1079,f6,negative).
example(e1079,f7,negative).
example(e1079,f8,negative).
example(e1079,f9,positive).
example(e1079,f10,negative).
example(e1080,f1,positive).
example(e1080,f2,negative).
example(e1080,f3,positive).
example(e1080,f4,negative).
example(e1080,f5,negative).
example(e1080,f6,positive).
example(e1080,f7,positive).
example(e1080,f8,negative).
example(e1080,f9,negative).
example(e1080,f10,negative).
example(e1081,f1,negative).
example(e1081,f2,negative).
example(e1081,f3,positive).
example(e1081,f4,positive).
example(e1081,f5,positive).
example(e1081,f6,negative).
example(e1081,f7,negative).
example(e1081,f8,positive).
example(e1081,f9,positive).
example(e1081,f10,negative).
example(e1082,f1,negative).
example(e1082,f2,positive).
example(e1082,f3,positive).
example(e1082,f4,negative).
example(e1082,f5,positive).
example(e1082,f6,positive).
example(e1082,f7,negative).
example(e1082,f8,negative).
example(e1082,f9,positive).
example(e1082,f10,positive).
example(e1083,f1,negative).
example(e1083,f2,negative).
example(e1083,f3,positive).
example(e1083,f4,negative).
example(e1083,f5,negative).
example(e1083,f6,negative).
example(e1083,f7,positive).
example(e1083,f8,positive).
example(e1083,f9,positive).
example(e1083,f10,negative).
example(e1084,f1,positive).
example(e1084,f2,negative).
example(e1084,f3,positive).
example(e1084,f4,positive).
example(e1084,f5,negative).
example(e1084,f6,negative).
example(e1084,f7,negative).
example(e1084,f8,positive).
example(e1084,f9,negative).
example(e1084,f10,positive).
example(e1085,f1,negative).
example(e1085,f2,negative).
example(e1085,f3,negative).
example(e1085,f4,positive).
example(e1085,f5,positive).
example(e1085,f6,positive).
example(e1085,f7,negative).
example(e1085,f8,negative).
example(e1085,f9,positive).
example(e1085,f10,positive).
example(e1086,f1,positive).
example(e1086,f2,positive).
example(e1086,f3,negative).
example(e1086,f4,negative).
example(e1086,f5,negative).
example(e1086,f6,negative).
example(e1086,f7,positive).
example(e1086,f8,negative).
example(e1086,f9,positive).
example(e1086,f10,negative).
example(e1087,f1,positive).
example(e1087,f2,positive).
example(e1087,f3,negative).
example(e1087,f4,negative).
example(e1087,f5,negative).
example(e1087,f6,positive).
example(e1087,f7,negative).
example(e1087,f8,negative).
example(e1087,f9,positive).
example(e1087,f10,positive).
example(e1088,f1,positive).
example(e1088,f2,positive).
example(e1088,f3,negative).
example(e1088,f4,positive).
example(e1088,f5,positive).
example(e1088,f6,positive).
example(e1088,f7,negative).
example(e1088,f8,negative).
example(e1088,f9,negative).
example(e1088,f10,negative).
example(e1089,f1,positive).
example(e1089,f2,positive).
example(e1089,f3,negative).
example(e1089,f4,negative).
example(e1089,f5,positive).
example(e1089,f6,positive).
example(e1089,f7,positive).
example(e1089,f8,positive).
example(e1089,f9,negative).
example(e1089,f10,positive).
example(e1090,f1,negative).
example(e1090,f2,negative).
example(e1090,f3,negative).
example(e1090,f4,positive).
example(e1090,f5,positive).
example(e1090,f6,positive).
example(e1090,f7,positive).
example(e1090,f8,positive).
example(e1090,f9,negative).
example(e1090,f10,positive).
example(e1091,f1,negative).
example(e1091,f2,negative).
example(e1091,f3,positive).
example(e1091,f4,negative).
example(e1091,f5,positive).
example(e1091,f6,negative).
example(e1091,f7,positive).
example(e1091,f8,negative).
example(e1091,f9,positive).
example(e1091,f10,positive).
example(e1092,f1,negative).
example(e1092,f2,positive).
example(e1092,f3,positive).
example(e1092,f4,negative).
example(e1092,f5,negative).
example(e1092,f6,positive).
example(e1092,f7,positive).
example(e1092,f8,negative).
example(e1092,f9,positive).
example(e1092,f10,negative).
example(e1093,f1,positive).
example(e1093,f2,positive).
example(e1093,f3,negative).
example(e1093,f4,positive).
example(e1093,f5,negative).
example(e1093,f6,positive).
example(e1093,f7,positive).
example(e1093,f8,negative).
example(e1093,f9,negative).
example(e1093,f10,negative).
example(e1094,f1,positive).
example(e1094,f2,negative).
example(e1094,f3,positive).
example(e1094,f4,negative).
example(e1094,f5,negative).
example(e1094,f6,negative).
example(e1094,f7,positive).
example(e1094,f8,positive).
example(e1094,f9,negative).
example(e1094,f10,negative).
example(e1095,f1,negative).
example(e1095,f2,negative).
example(e1095,f3,negative).
example(e1095,f4,negative).
example(e1095,f5,positive).
example(e1095,f6,positive).
example(e1095,f7,negative).
example(e1095,f8,positive).
example(e1095,f9,negative).
example(e1095,f10,negative).
example(e1096,f1,positive).
example(e1096,f2,negative).
example(e1096,f3,negative).
example(e1096,f4,negative).
example(e1096,f5,negative).
example(e1096,f6,negative).
example(e1096,f7,positive).
example(e1096,f8,negative).
example(e1096,f9,positive).
example(e1096,f10,positive).
example(e1097,f1,positive).
example(e1097,f2,negative).
example(e1097,f3,negative).
example(e1097,f4,negative).
example(e1097,f5,negative).
example(e1097,f6,negative).
example(e1097,f7,positive).
example(e1097,f8,positive).
example(e1097,f9,positive).
example(e1097,f10,positive).
example(e1098,f1,positive).
example(e1098,f2,positive).
example(e1098,f3,positive).
example(e1098,f4,positive).
example(e1098,f5,negative).
example(e1098,f6,negative).
example(e1098,f7,negative).
example(e1098,f8,negative).
example(e1098,f9,positive).
example(e1098,f10,negative).
example(e1099,f1,positive).
example(e1099,f2,positive).
example(e1099,f3,positive).
example(e1099,f4,positive).
example(e1099,f5,positive).
example(e1099,f6,negative).
example(e1099,f7,positive).
example(e1099,f8,positive).
example(e1099,f9,positive).
example(e1099,f10,positive).
example(e1100,f1,positive).
example(e1100,f2,positive).
example(e1100,f3,positive).
example(e1100,f4,positive).
example(e1100,f5,positive).
example(e1100,f6,negative).
example(e1100,f7,positive).
example(e1100,f8,positive).
example(e1100,f9,positive).
example(e1100,f10,negative).
example(e1101,f1,positive).
example(e1101,f2,negative).
example(e1101,f3,negative).
example(e1101,f4,negative).
example(e1101,f5,positive).
example(e1101,f6,positive).
example(e1101,f7,negative).
example(e1101,f8,positive).
example(e1101,f9,positive).
example(e1101,f10,positive).
example(e1102,f1,positive).
example(e1102,f2,positive).
example(e1102,f3,positive).
example(e1102,f4,negative).
example(e1102,f5,negative).
example(e1102,f6,positive).
example(e1102,f7,positive).
example(e1102,f8,negative).
example(e1102,f9,positive).
example(e1102,f10,positive).
example(e1103,f1,positive).
example(e1103,f2,positive).
example(e1103,f3,positive).
example(e1103,f4,negative).
example(e1103,f5,positive).
example(e1103,f6,positive).
example(e1103,f7,positive).
example(e1103,f8,positive).
example(e1103,f9,positive).
example(e1103,f10,negative).
example(e1104,f1,negative).
example(e1104,f2,positive).
example(e1104,f3,positive).
example(e1104,f4,positive).
example(e1104,f5,negative).
example(e1104,f6,positive).
example(e1104,f7,positive).
example(e1104,f8,positive).
example(e1104,f9,negative).
example(e1104,f10,positive).
example(e1105,f1,negative).
example(e1105,f2,negative).
example(e1105,f3,negative).
example(e1105,f4,negative).
example(e1105,f5,negative).
example(e1105,f6,positive).
example(e1105,f7,positive).
example(e1105,f8,negative).
example(e1105,f9,negative).
example(e1105,f10,negative).
example(e1106,f1,negative).
example(e1106,f2,negative).
example(e1106,f3,negative).
example(e1106,f4,negative).
example(e1106,f5,negative).
example(e1106,f6,negative).
example(e1106,f7,positive).
example(e1106,f8,positive).
example(e1106,f9,negative).
example(e1106,f10,negative).
example(e1107,f1,negative).
example(e1107,f2,positive).
example(e1107,f3,negative).
example(e1107,f4,negative).
example(e1107,f5,negative).
example(e1107,f6,negative).
example(e1107,f7,positive).
example(e1107,f8,negative).
example(e1107,f9,positive).
example(e1107,f10,negative).
example(e1108,f1,positive).
example(e1108,f2,negative).
example(e1108,f3,positive).
example(e1108,f4,negative).
example(e1108,f5,positive).
example(e1108,f6,negative).
example(e1108,f7,negative).
example(e1108,f8,negative).
example(e1108,f9,positive).
example(e1108,f10,negative).
example(e1109,f1,negative).
example(e1109,f2,negative).
example(e1109,f3,negative).
example(e1109,f4,positive).
example(e1109,f5,negative).
example(e1109,f6,positive).
example(e1109,f7,positive).
example(e1109,f8,positive).
example(e1109,f9,positive).
example(e1109,f10,positive).
example(e1110,f1,negative).
example(e1110,f2,negative).
example(e1110,f3,negative).
example(e1110,f4,negative).
example(e1110,f5,negative).
example(e1110,f6,negative).
example(e1110,f7,negative).
example(e1110,f8,negative).
example(e1110,f9,positive).
example(e1110,f10,positive).
example(e1111,f1,negative).
example(e1111,f2,positive).
example(e1111,f3,negative).
example(e1111,f4,negative).
example(e1111,f5,positive).
example(e1111,f6,positive).
example(e1111,f7,negative).
example(e1111,f8,negative).
example(e1111,f9,positive).
example(e1111,f10,negative).
example(e1112,f1,positive).
example(e1112,f2,negative).
example(e1112,f3,positive).
example(e1112,f4,negative).
example(e1112,f5,positive).
example(e1112,f6,positive).
example(e1112,f7,negative).
example(e1112,f8,positive).
example(e1112,f9,negative).
example(e1112,f10,negative).
example(e1113,f1,negative).
example(e1113,f2,negative).
example(e1113,f3,positive).
example(e1113,f4,positive).
example(e1113,f5,negative).
example(e1113,f6,positive).
example(e1113,f7,negative).
example(e1113,f8,negative).
example(e1113,f9,negative).
example(e1113,f10,negative).
example(e1114,f1,positive).
example(e1114,f2,negative).
example(e1114,f3,positive).
example(e1114,f4,positive).
example(e1114,f5,positive).
example(e1114,f6,positive).
example(e1114,f7,positive).
example(e1114,f8,positive).
example(e1114,f9,negative).
example(e1114,f10,negative).
example(e1115,f1,negative).
example(e1115,f2,negative).
example(e1115,f3,negative).
example(e1115,f4,negative).
example(e1115,f5,positive).
example(e1115,f6,negative).
example(e1115,f7,positive).
example(e1115,f8,negative).
example(e1115,f9,positive).
example(e1115,f10,negative).
example(e1116,f1,negative).
example(e1116,f2,negative).
example(e1116,f3,negative).
example(e1116,f4,negative).
example(e1116,f5,positive).
example(e1116,f6,positive).
example(e1116,f7,negative).
example(e1116,f8,positive).
example(e1116,f9,positive).
example(e1116,f10,positive).
example(e1117,f1,positive).
example(e1117,f2,negative).
example(e1117,f3,negative).
example(e1117,f4,negative).
example(e1117,f5,positive).
example(e1117,f6,negative).
example(e1117,f7,positive).
example(e1117,f8,negative).
example(e1117,f9,negative).
example(e1117,f10,positive).
example(e1118,f1,negative).
example(e1118,f2,negative).
example(e1118,f3,negative).
example(e1118,f4,positive).
example(e1118,f5,negative).
example(e1118,f6,positive).
example(e1118,f7,negative).
example(e1118,f8,negative).
example(e1118,f9,positive).
example(e1118,f10,negative).
example(e1119,f1,positive).
example(e1119,f2,positive).
example(e1119,f3,negative).
example(e1119,f4,negative).
example(e1119,f5,negative).
example(e1119,f6,negative).
example(e1119,f7,negative).
example(e1119,f8,negative).
example(e1119,f9,positive).
example(e1119,f10,positive).
example(e1120,f1,negative).
example(e1120,f2,negative).
example(e1120,f3,negative).
example(e1120,f4,positive).
example(e1120,f5,negative).
example(e1120,f6,negative).
example(e1120,f7,negative).
example(e1120,f8,negative).
example(e1120,f9,negative).
example(e1120,f10,positive).
example(e1121,f1,positive).
example(e1121,f2,negative).
example(e1121,f3,negative).
example(e1121,f4,positive).
example(e1121,f5,positive).
example(e1121,f6,negative).
example(e1121,f7,negative).
example(e1121,f8,negative).
example(e1121,f9,negative).
example(e1121,f10,negative).
example(e1122,f1,positive).
example(e1122,f2,positive).
example(e1122,f3,negative).
example(e1122,f4,negative).
example(e1122,f5,positive).
example(e1122,f6,negative).
example(e1122,f7,positive).
example(e1122,f8,positive).
example(e1122,f9,negative).
example(e1122,f10,positive).
example(e1123,f1,negative).
example(e1123,f2,positive).
example(e1123,f3,negative).
example(e1123,f4,negative).
example(e1123,f5,positive).
example(e1123,f6,positive).
example(e1123,f7,negative).
example(e1123,f8,positive).
example(e1123,f9,negative).
example(e1123,f10,positive).
example(e1124,f1,negative).
example(e1124,f2,negative).
example(e1124,f3,negative).
example(e1124,f4,positive).
example(e1124,f5,negative).
example(e1124,f6,negative).
example(e1124,f7,positive).
example(e1124,f8,negative).
example(e1124,f9,negative).
example(e1124,f10,negative).
example(e1125,f1,negative).
example(e1125,f2,negative).
example(e1125,f3,positive).
example(e1125,f4,positive).
example(e1125,f5,negative).
example(e1125,f6,positive).
example(e1125,f7,negative).
example(e1125,f8,negative).
example(e1125,f9,positive).
example(e1125,f10,negative).
example(e1126,f1,positive).
example(e1126,f2,negative).
example(e1126,f3,negative).
example(e1126,f4,positive).
example(e1126,f5,negative).
example(e1126,f6,positive).
example(e1126,f7,negative).
example(e1126,f8,positive).
example(e1126,f9,negative).
example(e1126,f10,negative).
example(e1127,f1,negative).
example(e1127,f2,negative).
example(e1127,f3,negative).
example(e1127,f4,negative).
example(e1127,f5,positive).
example(e1127,f6,positive).
example(e1127,f7,negative).
example(e1127,f8,negative).
example(e1127,f9,negative).
example(e1127,f10,positive).
example(e1128,f1,negative).
example(e1128,f2,negative).
example(e1128,f3,negative).
example(e1128,f4,positive).
example(e1128,f5,positive).
example(e1128,f6,positive).
example(e1128,f7,positive).
example(e1128,f8,negative).
example(e1128,f9,positive).
example(e1128,f10,negative).
example(e1129,f1,positive).
example(e1129,f2,positive).
example(e1129,f3,positive).
example(e1129,f4,positive).
example(e1129,f5,negative).
example(e1129,f6,negative).
example(e1129,f7,positive).
example(e1129,f8,positive).
example(e1129,f9,negative).
example(e1129,f10,negative).
example(e1130,f1,negative).
example(e1130,f2,positive).
example(e1130,f3,negative).
example(e1130,f4,negative).
example(e1130,f5,negative).
example(e1130,f6,positive).
example(e1130,f7,positive).
example(e1130,f8,negative).
example(e1130,f9,positive).
example(e1130,f10,negative).
example(e1131,f1,negative).
example(e1131,f2,negative).
example(e1131,f3,positive).
example(e1131,f4,positive).
example(e1131,f5,negative).
example(e1131,f6,positive).
example(e1131,f7,negative).
example(e1131,f8,positive).
example(e1131,f9,positive).
example(e1131,f10,negative).
example(e1132,f1,negative).
example(e1132,f2,positive).
example(e1132,f3,negative).
example(e1132,f4,negative).
example(e1132,f5,positive).
example(e1132,f6,negative).
example(e1132,f7,negative).
example(e1132,f8,positive).
example(e1132,f9,negative).
example(e1132,f10,negative).
example(e1133,f1,negative).
example(e1133,f2,negative).
example(e1133,f3,negative).
example(e1133,f4,positive).
example(e1133,f5,negative).
example(e1133,f6,negative).
example(e1133,f7,negative).
example(e1133,f8,positive).
example(e1133,f9,negative).
example(e1133,f10,positive).
example(e1134,f1,positive).
example(e1134,f2,positive).
example(e1134,f3,positive).
example(e1134,f4,negative).
example(e1134,f5,negative).
example(e1134,f6,positive).
example(e1134,f7,negative).
example(e1134,f8,positive).
example(e1134,f9,negative).
example(e1134,f10,negative).
example(e1135,f1,negative).
example(e1135,f2,positive).
example(e1135,f3,positive).
example(e1135,f4,negative).
example(e1135,f5,positive).
example(e1135,f6,negative).
example(e1135,f7,negative).
example(e1135,f8,negative).
example(e1135,f9,positive).
example(e1135,f10,negative).
example(e1136,f1,negative).
example(e1136,f2,positive).
example(e1136,f3,negative).
example(e1136,f4,negative).
example(e1136,f5,positive).
example(e1136,f6,negative).
example(e1136,f7,positive).
example(e1136,f8,positive).
example(e1136,f9,negative).
example(e1136,f10,negative).
example(e1137,f1,positive).
example(e1137,f2,negative).
example(e1137,f3,positive).
example(e1137,f4,positive).
example(e1137,f5,negative).
example(e1137,f6,negative).
example(e1137,f7,negative).
example(e1137,f8,negative).
example(e1137,f9,negative).
example(e1137,f10,positive).
example(e1138,f1,positive).
example(e1138,f2,negative).
example(e1138,f3,positive).
example(e1138,f4,negative).
example(e1138,f5,positive).
example(e1138,f6,negative).
example(e1138,f7,positive).
example(e1138,f8,positive).
example(e1138,f9,negative).
example(e1138,f10,positive).
example(e1139,f1,positive).
example(e1139,f2,negative).
example(e1139,f3,positive).
example(e1139,f4,positive).
example(e1139,f5,negative).
example(e1139,f6,negative).
example(e1139,f7,negative).
example(e1139,f8,negative).
example(e1139,f9,positive).
example(e1139,f10,positive).
example(e1140,f1,negative).
example(e1140,f2,positive).
example(e1140,f3,negative).
example(e1140,f4,negative).
example(e1140,f5,negative).
example(e1140,f6,negative).
example(e1140,f7,negative).
example(e1140,f8,negative).
example(e1140,f9,negative).
example(e1140,f10,negative).
example(e1141,f1,positive).
example(e1141,f2,positive).
example(e1141,f3,positive).
example(e1141,f4,positive).
example(e1141,f5,positive).
example(e1141,f6,negative).
example(e1141,f7,positive).
example(e1141,f8,positive).
example(e1141,f9,negative).
example(e1141,f10,positive).
example(e1142,f1,positive).
example(e1142,f2,negative).
example(e1142,f3,positive).
example(e1142,f4,positive).
example(e1142,f5,negative).
example(e1142,f6,positive).
example(e1142,f7,positive).
example(e1142,f8,negative).
example(e1142,f9,negative).
example(e1142,f10,positive).
example(e1143,f1,negative).
example(e1143,f2,positive).
example(e1143,f3,positive).
example(e1143,f4,positive).
example(e1143,f5,positive).
example(e1143,f6,positive).
example(e1143,f7,positive).
example(e1143,f8,positive).
example(e1143,f9,negative).
example(e1143,f10,positive).
example(e1144,f1,negative).
example(e1144,f2,positive).
example(e1144,f3,negative).
example(e1144,f4,positive).
example(e1144,f5,negative).
example(e1144,f6,positive).
example(e1144,f7,positive).
example(e1144,f8,negative).
example(e1144,f9,positive).
example(e1144,f10,positive).
example(e1145,f1,positive).
example(e1145,f2,negative).
example(e1145,f3,negative).
example(e1145,f4,negative).
example(e1145,f5,negative).
example(e1145,f6,negative).
example(e1145,f7,negative).
example(e1145,f8,positive).
example(e1145,f9,positive).
example(e1145,f10,positive).
example(e1146,f1,positive).
example(e1146,f2,negative).
example(e1146,f3,positive).
example(e1146,f4,negative).
example(e1146,f5,negative).
example(e1146,f6,positive).
example(e1146,f7,positive).
example(e1146,f8,positive).
example(e1146,f9,positive).
example(e1146,f10,positive).
example(e1147,f1,positive).
example(e1147,f2,positive).
example(e1147,f3,negative).
example(e1147,f4,negative).
example(e1147,f5,negative).
example(e1147,f6,positive).
example(e1147,f7,positive).
example(e1147,f8,negative).
example(e1147,f9,positive).
example(e1147,f10,negative).
example(e1148,f1,negative).
example(e1148,f2,negative).
example(e1148,f3,negative).
example(e1148,f4,positive).
example(e1148,f5,positive).
example(e1148,f6,positive).
example(e1148,f7,positive).
example(e1148,f8,negative).
example(e1148,f9,negative).
example(e1148,f10,positive).
example(e1149,f1,positive).
example(e1149,f2,negative).
example(e1149,f3,negative).
example(e1149,f4,negative).
example(e1149,f5,positive).
example(e1149,f6,positive).
example(e1149,f7,negative).
example(e1149,f8,negative).
example(e1149,f9,positive).
example(e1149,f10,positive).
example(e1150,f1,negative).
example(e1150,f2,negative).
example(e1150,f3,positive).
example(e1150,f4,positive).
example(e1150,f5,negative).
example(e1150,f6,negative).
example(e1150,f7,negative).
example(e1150,f8,negative).
example(e1150,f9,negative).
example(e1150,f10,negative).
example(e1151,f1,negative).
example(e1151,f2,positive).
example(e1151,f3,positive).
example(e1151,f4,positive).
example(e1151,f5,negative).
example(e1151,f6,positive).
example(e1151,f7,positive).
example(e1151,f8,negative).
example(e1151,f9,positive).
example(e1151,f10,positive).
example(e1152,f1,negative).
example(e1152,f2,negative).
example(e1152,f3,positive).
example(e1152,f4,negative).
example(e1152,f5,positive).
example(e1152,f6,negative).
example(e1152,f7,positive).
example(e1152,f8,positive).
example(e1152,f9,positive).
example(e1152,f10,positive).
example(e1153,f1,negative).
example(e1153,f2,positive).
example(e1153,f3,negative).
example(e1153,f4,positive).
example(e1153,f5,negative).
example(e1153,f6,positive).
example(e1153,f7,positive).
example(e1153,f8,positive).
example(e1153,f9,positive).
example(e1153,f10,negative).
example(e1154,f1,positive).
example(e1154,f2,positive).
example(e1154,f3,negative).
example(e1154,f4,negative).
example(e1154,f5,positive).
example(e1154,f6,negative).
example(e1154,f7,positive).
example(e1154,f8,positive).
example(e1154,f9,positive).
example(e1154,f10,negative).
example(e1155,f1,positive).
example(e1155,f2,negative).
example(e1155,f3,negative).
example(e1155,f4,positive).
example(e1155,f5,positive).
example(e1155,f6,positive).
example(e1155,f7,positive).
example(e1155,f8,positive).
example(e1155,f9,positive).
example(e1155,f10,negative).
example(e1156,f1,positive).
example(e1156,f2,negative).
example(e1156,f3,negative).
example(e1156,f4,positive).
example(e1156,f5,negative).
example(e1156,f6,negative).
example(e1156,f7,positive).
example(e1156,f8,positive).
example(e1156,f9,negative).
example(e1156,f10,positive).
example(e1157,f1,positive).
example(e1157,f2,positive).
example(e1157,f3,positive).
example(e1157,f4,positive).
example(e1157,f5,positive).
example(e1157,f6,positive).
example(e1157,f7,negative).
example(e1157,f8,positive).
example(e1157,f9,positive).
example(e1157,f10,negative).
example(e1158,f1,positive).
example(e1158,f2,positive).
example(e1158,f3,negative).
example(e1158,f4,positive).
example(e1158,f5,positive).
example(e1158,f6,negative).
example(e1158,f7,negative).
example(e1158,f8,negative).
example(e1158,f9,negative).
example(e1158,f10,negative).
example(e1159,f1,negative).
example(e1159,f2,negative).
example(e1159,f3,positive).
example(e1159,f4,positive).
example(e1159,f5,positive).
example(e1159,f6,negative).
example(e1159,f7,negative).
example(e1159,f8,negative).
example(e1159,f9,negative).
example(e1159,f10,negative).
example(e1160,f1,positive).
example(e1160,f2,negative).
example(e1160,f3,negative).
example(e1160,f4,positive).
example(e1160,f5,negative).
example(e1160,f6,negative).
example(e1160,f7,positive).
example(e1160,f8,positive).
example(e1160,f9,positive).
example(e1160,f10,negative).
example(e1161,f1,negative).
example(e1161,f2,positive).
example(e1161,f3,negative).
example(e1161,f4,positive).
example(e1161,f5,positive).
example(e1161,f6,negative).
example(e1161,f7,negative).
example(e1161,f8,negative).
example(e1161,f9,positive).
example(e1161,f10,negative).
example(e1162,f1,negative).
example(e1162,f2,negative).
example(e1162,f3,negative).
example(e1162,f4,positive).
example(e1162,f5,positive).
example(e1162,f6,negative).
example(e1162,f7,positive).
example(e1162,f8,negative).
example(e1162,f9,negative).
example(e1162,f10,negative).
example(e1163,f1,negative).
example(e1163,f2,negative).
example(e1163,f3,negative).
example(e1163,f4,negative).
example(e1163,f5,positive).
example(e1163,f6,positive).
example(e1163,f7,positive).
example(e1163,f8,positive).
example(e1163,f9,positive).
example(e1163,f10,negative).
example(e1164,f1,positive).
example(e1164,f2,negative).
example(e1164,f3,positive).
example(e1164,f4,positive).
example(e1164,f5,negative).
example(e1164,f6,negative).
example(e1164,f7,positive).
example(e1164,f8,positive).
example(e1164,f9,positive).
example(e1164,f10,positive).
example(e1165,f1,negative).
example(e1165,f2,positive).
example(e1165,f3,negative).
example(e1165,f4,positive).
example(e1165,f5,positive).
example(e1165,f6,positive).
example(e1165,f7,positive).
example(e1165,f8,negative).
example(e1165,f9,positive).
example(e1165,f10,negative).
example(e1166,f1,negative).
example(e1166,f2,positive).
example(e1166,f3,positive).
example(e1166,f4,negative).
example(e1166,f5,positive).
example(e1166,f6,positive).
example(e1166,f7,negative).
example(e1166,f8,negative).
example(e1166,f9,positive).
example(e1166,f10,negative).
example(e1167,f1,negative).
example(e1167,f2,positive).
example(e1167,f3,positive).
example(e1167,f4,positive).
example(e1167,f5,positive).
example(e1167,f6,positive).
example(e1167,f7,positive).
example(e1167,f8,negative).
example(e1167,f9,positive).
example(e1167,f10,negative).
example(e1168,f1,negative).
example(e1168,f2,negative).
example(e1168,f3,positive).
example(e1168,f4,positive).
example(e1168,f5,positive).
example(e1168,f6,positive).
example(e1168,f7,negative).
example(e1168,f8,negative).
example(e1168,f9,positive).
example(e1168,f10,positive).
example(e1169,f1,negative).
example(e1169,f2,positive).
example(e1169,f3,negative).
example(e1169,f4,negative).
example(e1169,f5,positive).
example(e1169,f6,positive).
example(e1169,f7,negative).
example(e1169,f8,positive).
example(e1169,f9,positive).
example(e1169,f10,positive).
example(e1170,f1,negative).
example(e1170,f2,negative).
example(e1170,f3,negative).
example(e1170,f4,positive).
example(e1170,f5,negative).
example(e1170,f6,positive).
example(e1170,f7,positive).
example(e1170,f8,positive).
example(e1170,f9,negative).
example(e1170,f10,negative).
example(e1171,f1,positive).
example(e1171,f2,positive).
example(e1171,f3,positive).
example(e1171,f4,negative).
example(e1171,f5,positive).
example(e1171,f6,negative).
example(e1171,f7,negative).
example(e1171,f8,negative).
example(e1171,f9,positive).
example(e1171,f10,positive).
example(e1172,f1,negative).
example(e1172,f2,positive).
example(e1172,f3,positive).
example(e1172,f4,positive).
example(e1172,f5,negative).
example(e1172,f6,positive).
example(e1172,f7,negative).
example(e1172,f8,negative).
example(e1172,f9,positive).
example(e1172,f10,negative).
example(e1173,f1,positive).
example(e1173,f2,positive).
example(e1173,f3,positive).
example(e1173,f4,negative).
example(e1173,f5,positive).
example(e1173,f6,negative).
example(e1173,f7,negative).
example(e1173,f8,positive).
example(e1173,f9,positive).
example(e1173,f10,negative).
example(e1174,f1,positive).
example(e1174,f2,positive).
example(e1174,f3,negative).
example(e1174,f4,negative).
example(e1174,f5,negative).
example(e1174,f6,positive).
example(e1174,f7,negative).
example(e1174,f8,positive).
example(e1174,f9,negative).
example(e1174,f10,negative).
example(e1175,f1,positive).
example(e1175,f2,positive).
example(e1175,f3,positive).
example(e1175,f4,positive).
example(e1175,f5,negative).
example(e1175,f6,positive).
example(e1175,f7,negative).
example(e1175,f8,positive).
example(e1175,f9,positive).
example(e1175,f10,positive).
example(e1176,f1,positive).
example(e1176,f2,positive).
example(e1176,f3,positive).
example(e1176,f4,positive).
example(e1176,f5,negative).
example(e1176,f6,positive).
example(e1176,f7,negative).
example(e1176,f8,negative).
example(e1176,f9,positive).
example(e1176,f10,negative).
example(e1177,f1,negative).
example(e1177,f2,positive).
example(e1177,f3,negative).
example(e1177,f4,negative).
example(e1177,f5,negative).
example(e1177,f6,negative).
example(e1177,f7,positive).
example(e1177,f8,positive).
example(e1177,f9,positive).
example(e1177,f10,negative).
example(e1178,f1,positive).
example(e1178,f2,negative).
example(e1178,f3,positive).
example(e1178,f4,positive).
example(e1178,f5,negative).
example(e1178,f6,negative).
example(e1178,f7,positive).
example(e1178,f8,negative).
example(e1178,f9,positive).
example(e1178,f10,negative).
example(e1179,f1,negative).
example(e1179,f2,negative).
example(e1179,f3,positive).
example(e1179,f4,negative).
example(e1179,f5,positive).
example(e1179,f6,negative).
example(e1179,f7,positive).
example(e1179,f8,positive).
example(e1179,f9,negative).
example(e1179,f10,positive).
example(e1180,f1,positive).
example(e1180,f2,positive).
example(e1180,f3,positive).
example(e1180,f4,positive).
example(e1180,f5,positive).
example(e1180,f6,positive).
example(e1180,f7,positive).
example(e1180,f8,negative).
example(e1180,f9,negative).
example(e1180,f10,negative).
example(e1181,f1,positive).
example(e1181,f2,positive).
example(e1181,f3,negative).
example(e1181,f4,positive).
example(e1181,f5,positive).
example(e1181,f6,positive).
example(e1181,f7,negative).
example(e1181,f8,positive).
example(e1181,f9,negative).
example(e1181,f10,positive).
example(e1182,f1,positive).
example(e1182,f2,positive).
example(e1182,f3,negative).
example(e1182,f4,positive).
example(e1182,f5,negative).
example(e1182,f6,positive).
example(e1182,f7,negative).
example(e1182,f8,positive).
example(e1182,f9,positive).
example(e1182,f10,positive).
example(e1183,f1,positive).
example(e1183,f2,negative).
example(e1183,f3,negative).
example(e1183,f4,positive).
example(e1183,f5,positive).
example(e1183,f6,positive).
example(e1183,f7,positive).
example(e1183,f8,positive).
example(e1183,f9,negative).
example(e1183,f10,positive).
example(e1184,f1,negative).
example(e1184,f2,positive).
example(e1184,f3,positive).
example(e1184,f4,positive).
example(e1184,f5,positive).
example(e1184,f6,positive).
example(e1184,f7,positive).
example(e1184,f8,negative).
example(e1184,f9,negative).
example(e1184,f10,positive).
example(e1185,f1,positive).
example(e1185,f2,negative).
example(e1185,f3,negative).
example(e1185,f4,negative).
example(e1185,f5,negative).
example(e1185,f6,positive).
example(e1185,f7,negative).
example(e1185,f8,negative).
example(e1185,f9,positive).
example(e1185,f10,positive).
example(e1186,f1,positive).
example(e1186,f2,negative).
example(e1186,f3,negative).
example(e1186,f4,positive).
example(e1186,f5,negative).
example(e1186,f6,positive).
example(e1186,f7,negative).
example(e1186,f8,negative).
example(e1186,f9,negative).
example(e1186,f10,negative).
example(e1187,f1,positive).
example(e1187,f2,positive).
example(e1187,f3,positive).
example(e1187,f4,positive).
example(e1187,f5,positive).
example(e1187,f6,positive).
example(e1187,f7,negative).
example(e1187,f8,negative).
example(e1187,f9,negative).
example(e1187,f10,positive).
example(e1188,f1,positive).
example(e1188,f2,negative).
example(e1188,f3,positive).
example(e1188,f4,negative).
example(e1188,f5,negative).
example(e1188,f6,negative).
example(e1188,f7,positive).
example(e1188,f8,positive).
example(e1188,f9,positive).
example(e1188,f10,positive).
example(e1189,f1,negative).
example(e1189,f2,positive).
example(e1189,f3,positive).
example(e1189,f4,positive).
example(e1189,f5,negative).
example(e1189,f6,positive).
example(e1189,f7,positive).
example(e1189,f8,positive).
example(e1189,f9,positive).
example(e1189,f10,negative).
example(e1190,f1,negative).
example(e1190,f2,negative).
example(e1190,f3,negative).
example(e1190,f4,positive).
example(e1190,f5,positive).
example(e1190,f6,negative).
example(e1190,f7,negative).
example(e1190,f8,negative).
example(e1190,f9,negative).
example(e1190,f10,negative).
example(e1191,f1,negative).
example(e1191,f2,positive).
example(e1191,f3,negative).
example(e1191,f4,negative).
example(e1191,f5,positive).
example(e1191,f6,negative).
example(e1191,f7,positive).
example(e1191,f8,positive).
example(e1191,f9,negative).
example(e1191,f10,positive).
example(e1192,f1,negative).
example(e1192,f2,positive).
example(e1192,f3,positive).
example(e1192,f4,negative).
example(e1192,f5,negative).
example(e1192,f6,negative).
example(e1192,f7,positive).
example(e1192,f8,positive).
example(e1192,f9,positive).
example(e1192,f10,negative).
example(e1193,f1,negative).
example(e1193,f2,negative).
example(e1193,f3,negative).
example(e1193,f4,positive).
example(e1193,f5,negative).
example(e1193,f6,negative).
example(e1193,f7,negative).
example(e1193,f8,positive).
example(e1193,f9,positive).
example(e1193,f10,negative).
example(e1194,f1,positive).
example(e1194,f2,positive).
example(e1194,f3,negative).
example(e1194,f4,negative).
example(e1194,f5,positive).
example(e1194,f6,negative).
example(e1194,f7,negative).
example(e1194,f8,positive).
example(e1194,f9,negative).
example(e1194,f10,positive).
example(e1195,f1,negative).
example(e1195,f2,negative).
example(e1195,f3,positive).
example(e1195,f4,positive).
example(e1195,f5,positive).
example(e1195,f6,negative).
example(e1195,f7,negative).
example(e1195,f8,negative).
example(e1195,f9,positive).
example(e1195,f10,positive).
example(e1196,f1,positive).
example(e1196,f2,positive).
example(e1196,f3,positive).
example(e1196,f4,negative).
example(e1196,f5,negative).
example(e1196,f6,negative).
example(e1196,f7,negative).
example(e1196,f8,positive).
example(e1196,f9,negative).
example(e1196,f10,negative).
example(e1197,f1,positive).
example(e1197,f2,positive).
example(e1197,f3,negative).
example(e1197,f4,positive).
example(e1197,f5,positive).
example(e1197,f6,negative).
example(e1197,f7,negative).
example(e1197,f8,positive).
example(e1197,f9,positive).
example(e1197,f10,positive).
example(e1198,f1,positive).
example(e1198,f2,negative).
example(e1198,f3,negative).
example(e1198,f4,positive).
example(e1198,f5,negative).
example(e1198,f6,positive).
example(e1198,f7,negative).
example(e1198,f8,positive).
example(e1198,f9,negative).
example(e1198,f10,positive).
example(e1199,f1,positive).
example(e1199,f2,negative).
example(e1199,f3,positive).
example(e1199,f4,positive).
example(e1199,f5,positive).
example(e1199,f6,positive).
example(e1199,f7,negative).
example(e1199,f8,negative).
example(e1199,f9,positive).
example(e1199,f10,negative).
example(e1200,f1,positive).
example(e1200,f2,negative).
example(e1200,f3,positive).
example(e1200,f4,positive).
example(e1200,f5,negative).
example(e1200,f6,negative).
example(e1200,f7,positive).
example(e1200,f8,negative).
example(e1200,f9,negative).
example(e1200,f10,positive).
example(e1201,f1,negative).
example(e1201,f2,negative).
example(e1201,f3,negative).
example(e1201,f4,positive).
example(e1201,f5,positive).
example(e1201,f6,negative).
example(e1201,f7,positive).
example(e1201,f8,positive).
example(e1201,f9,positive).
example(e1201,f10,positive).
example(e1202,f1,positive).
example(e1202,f2,positive).
example(e1202,f3,negative).
example(e1202,f4,positive).
example(e1202,f5,negative).
example(e1202,f6,negative).
example(e1202,f7,positive).
example(e1202,f8,positive).
example(e1202,f9,positive).
example(e1202,f10,negative).
example(e1203,f1,positive).
example(e1203,f2,negative).
example(e1203,f3,positive).
example(e1203,f4,positive).
example(e1203,f5,negative).
example(e1203,f6,negative).
example(e1203,f7,negative).
example(e1203,f8,negative).
example(e1203,f9,positive).
example(e1203,f10,negative).
example(e1204,f1,negative).
example(e1204,f2,positive).
example(e1204,f3,negative).
example(e1204,f4,positive).
example(e1204,f5,positive).
example(e1204,f6,positive).
example(e1204,f7,negative).
example(e1204,f8,negative).
example(e1204,f9,negative).
example(e1204,f10,negative).
example(e1205,f1,negative).
example(e1205,f2,positive).
example(e1205,f3,negative).
example(e1205,f4,negative).
example(e1205,f5,negative).
example(e1205,f6,negative).
example(e1205,f7,positive).
example(e1205,f8,positive).
example(e1205,f9,negative).
example(e1205,f10,negative).
example(e1206,f1,positive).
example(e1206,f2,positive).
example(e1206,f3,negative).
example(e1206,f4,negative).
example(e1206,f5,positive).
example(e1206,f6,negative).
example(e1206,f7,negative).
example(e1206,f8,positive).
example(e1206,f9,positive).
example(e1206,f10,negative).
example(e1207,f1,negative).
example(e1207,f2,negative).
example(e1207,f3,negative).
example(e1207,f4,positive).
example(e1207,f5,negative).
example(e1207,f6,positive).
example(e1207,f7,positive).
example(e1207,f8,negative).
example(e1207,f9,negative).
example(e1207,f10,negative).
example(e1208,f1,positive).
example(e1208,f2,positive).
example(e1208,f3,positive).
example(e1208,f4,positive).
example(e1208,f5,negative).
example(e1208,f6,negative).
example(e1208,f7,negative).
example(e1208,f8,positive).
example(e1208,f9,positive).
example(e1208,f10,positive).
example(e1209,f1,positive).
example(e1209,f2,negative).
example(e1209,f3,positive).
example(e1209,f4,negative).
example(e1209,f5,negative).
example(e1209,f6,positive).
example(e1209,f7,negative).
example(e1209,f8,negative).
example(e1209,f9,positive).
example(e1209,f10,positive).
example(e1210,f1,positive).
example(e1210,f2,positive).
example(e1210,f3,positive).
example(e1210,f4,negative).
example(e1210,f5,positive).
example(e1210,f6,negative).
example(e1210,f7,negative).
example(e1210,f8,positive).
example(e1210,f9,positive).
example(e1210,f10,positive).
example(e1211,f1,positive).
example(e1211,f2,positive).
example(e1211,f3,positive).
example(e1211,f4,positive).
example(e1211,f5,negative).
example(e1211,f6,negative).
example(e1211,f7,negative).
example(e1211,f8,positive).
example(e1211,f9,negative).
example(e1211,f10,negative).
example(e1212,f1,negative).
example(e1212,f2,positive).
example(e1212,f3,positive).
example(e1212,f4,negative).
example(e1212,f5,negative).
example(e1212,f6,negative).
example(e1212,f7,negative).
example(e1212,f8,positive).
example(e1212,f9,positive).
example(e1212,f10,positive).
example(e1213,f1,positive).
example(e1213,f2,negative).
example(e1213,f3,positive).
example(e1213,f4,positive).
example(e1213,f5,negative).
example(e1213,f6,positive).
example(e1213,f7,positive).
example(e1213,f8,positive).
example(e1213,f9,negative).
example(e1213,f10,negative).
example(e1214,f1,negative).
example(e1214,f2,positive).
example(e1214,f3,negative).
example(e1214,f4,positive).
example(e1214,f5,negative).
example(e1214,f6,negative).
example(e1214,f7,positive).
example(e1214,f8,negative).
example(e1214,f9,negative).
example(e1214,f10,negative).
example(e1215,f1,negative).
example(e1215,f2,positive).
example(e1215,f3,positive).
example(e1215,f4,negative).
example(e1215,f5,negative).
example(e1215,f6,positive).
example(e1215,f7,positive).
example(e1215,f8,negative).
example(e1215,f9,positive).
example(e1215,f10,positive).
example(e1216,f1,positive).
example(e1216,f2,positive).
example(e1216,f3,negative).
example(e1216,f4,negative).
example(e1216,f5,positive).
example(e1216,f6,positive).
example(e1216,f7,negative).
example(e1216,f8,negative).
example(e1216,f9,negative).
example(e1216,f10,positive).
example(e1217,f1,negative).
example(e1217,f2,negative).
example(e1217,f3,positive).
example(e1217,f4,positive).
example(e1217,f5,positive).
example(e1217,f6,positive).
example(e1217,f7,positive).
example(e1217,f8,negative).
example(e1217,f9,negative).
example(e1217,f10,negative).
example(e1218,f1,negative).
example(e1218,f2,negative).
example(e1218,f3,positive).
example(e1218,f4,positive).
example(e1218,f5,negative).
example(e1218,f6,positive).
example(e1218,f7,positive).
example(e1218,f8,negative).
example(e1218,f9,positive).
example(e1218,f10,negative).
example(e1219,f1,negative).
example(e1219,f2,positive).
example(e1219,f3,positive).
example(e1219,f4,negative).
example(e1219,f5,negative).
example(e1219,f6,negative).
example(e1219,f7,positive).
example(e1219,f8,negative).
example(e1219,f9,negative).
example(e1219,f10,negative).
example(e1220,f1,negative).
example(e1220,f2,negative).
example(e1220,f3,negative).
example(e1220,f4,positive).
example(e1220,f5,negative).
example(e1220,f6,negative).
example(e1220,f7,negative).
example(e1220,f8,positive).
example(e1220,f9,negative).
example(e1220,f10,negative).
example(e1221,f1,positive).
example(e1221,f2,positive).
example(e1221,f3,negative).
example(e1221,f4,negative).
example(e1221,f5,positive).
example(e1221,f6,positive).
example(e1221,f7,positive).
example(e1221,f8,positive).
example(e1221,f9,negative).
example(e1221,f10,negative).
example(e1222,f1,negative).
example(e1222,f2,negative).
example(e1222,f3,negative).
example(e1222,f4,negative).
example(e1222,f5,positive).
example(e1222,f6,positive).
example(e1222,f7,negative).
example(e1222,f8,negative).
example(e1222,f9,negative).
example(e1222,f10,negative).
example(e1223,f1,positive).
example(e1223,f2,positive).
example(e1223,f3,positive).
example(e1223,f4,positive).
example(e1223,f5,negative).
example(e1223,f6,negative).
example(e1223,f7,positive).
example(e1223,f8,positive).
example(e1223,f9,positive).
example(e1223,f10,positive).
example(e1224,f1,negative).
example(e1224,f2,negative).
example(e1224,f3,positive).
example(e1224,f4,positive).
example(e1224,f5,negative).
example(e1224,f6,negative).
example(e1224,f7,positive).
example(e1224,f8,positive).
example(e1224,f9,negative).
example(e1224,f10,positive).
example(e1225,f1,negative).
example(e1225,f2,positive).
example(e1225,f3,positive).
example(e1225,f4,negative).
example(e1225,f5,positive).
example(e1225,f6,negative).
example(e1225,f7,positive).
example(e1225,f8,positive).
example(e1225,f9,positive).
example(e1225,f10,negative).
example(e1226,f1,negative).
example(e1226,f2,positive).
example(e1226,f3,positive).
example(e1226,f4,positive).
example(e1226,f5,positive).
example(e1226,f6,negative).
example(e1226,f7,negative).
example(e1226,f8,negative).
example(e1226,f9,negative).
example(e1226,f10,positive).
example(e1227,f1,negative).
example(e1227,f2,negative).
example(e1227,f3,negative).
example(e1227,f4,negative).
example(e1227,f5,positive).
example(e1227,f6,positive).
example(e1227,f7,positive).
example(e1227,f8,negative).
example(e1227,f9,positive).
example(e1227,f10,negative).
example(e1228,f1,negative).
example(e1228,f2,positive).
example(e1228,f3,negative).
example(e1228,f4,positive).
example(e1228,f5,negative).
example(e1228,f6,positive).
example(e1228,f7,negative).
example(e1228,f8,negative).
example(e1228,f9,positive).
example(e1228,f10,negative).
example(e1229,f1,positive).
example(e1229,f2,negative).
example(e1229,f3,positive).
example(e1229,f4,negative).
example(e1229,f5,positive).
example(e1229,f6,negative).
example(e1229,f7,positive).
example(e1229,f8,positive).
example(e1229,f9,negative).
example(e1229,f10,negative).
example(e1230,f1,positive).
example(e1230,f2,positive).
example(e1230,f3,negative).
example(e1230,f4,positive).
example(e1230,f5,positive).
example(e1230,f6,negative).
example(e1230,f7,positive).
example(e1230,f8,negative).
example(e1230,f9,negative).
example(e1230,f10,negative).
example(e1231,f1,negative).
example(e1231,f2,negative).
example(e1231,f3,positive).
example(e1231,f4,negative).
example(e1231,f5,positive).
example(e1231,f6,negative).
example(e1231,f7,negative).
example(e1231,f8,positive).
example(e1231,f9,negative).
example(e1231,f10,negative).
example(e1232,f1,positive).
example(e1232,f2,negative).
example(e1232,f3,positive).
example(e1232,f4,negative).
example(e1232,f5,positive).
example(e1232,f6,negative).
example(e1232,f7,negative).
example(e1232,f8,negative).
example(e1232,f9,negative).
example(e1232,f10,negative).
example(e1233,f1,negative).
example(e1233,f2,positive).
example(e1233,f3,positive).
example(e1233,f4,positive).
example(e1233,f5,negative).
example(e1233,f6,positive).
example(e1233,f7,positive).
example(e1233,f8,negative).
example(e1233,f9,positive).
example(e1233,f10,negative).
example(e1234,f1,negative).
example(e1234,f2,positive).
example(e1234,f3,negative).
example(e1234,f4,positive).
example(e1234,f5,positive).
example(e1234,f6,negative).
example(e1234,f7,negative).
example(e1234,f8,positive).
example(e1234,f9,negative).
example(e1234,f10,negative).
example(e1235,f1,positive).
example(e1235,f2,negative).
example(e1235,f3,positive).
example(e1235,f4,positive).
example(e1235,f5,negative).
example(e1235,f6,negative).
example(e1235,f7,negative).
example(e1235,f8,positive).
example(e1235,f9,positive).
example(e1235,f10,negative).
example(e1236,f1,positive).
example(e1236,f2,negative).
example(e1236,f3,negative).
example(e1236,f4,negative).
example(e1236,f5,positive).
example(e1236,f6,negative).
example(e1236,f7,negative).
example(e1236,f8,positive).
example(e1236,f9,negative).
example(e1236,f10,positive).
example(e1237,f1,positive).
example(e1237,f2,positive).
example(e1237,f3,positive).
example(e1237,f4,positive).
example(e1237,f5,positive).
example(e1237,f6,negative).
example(e1237,f7,negative).
example(e1237,f8,negative).
example(e1237,f9,positive).
example(e1237,f10,positive).
example(e1238,f1,positive).
example(e1238,f2,negative).
example(e1238,f3,positive).
example(e1238,f4,positive).
example(e1238,f5,negative).
example(e1238,f6,positive).
example(e1238,f7,negative).
example(e1238,f8,negative).
example(e1238,f9,positive).
example(e1238,f10,negative).
example(e1239,f1,negative).
example(e1239,f2,positive).
example(e1239,f3,negative).
example(e1239,f4,negative).
example(e1239,f5,positive).
example(e1239,f6,positive).
example(e1239,f7,positive).
example(e1239,f8,negative).
example(e1239,f9,negative).
example(e1239,f10,positive).
example(e1240,f1,positive).
example(e1240,f2,negative).
example(e1240,f3,positive).
example(e1240,f4,positive).
example(e1240,f5,positive).
example(e1240,f6,positive).
example(e1240,f7,positive).
example(e1240,f8,negative).
example(e1240,f9,positive).
example(e1240,f10,negative).
example(e1241,f1,negative).
example(e1241,f2,positive).
example(e1241,f3,positive).
example(e1241,f4,positive).
example(e1241,f5,negative).
example(e1241,f6,negative).
example(e1241,f7,negative).
example(e1241,f8,negative).
example(e1241,f9,negative).
example(e1241,f10,positive).
example(e1242,f1,negative).
example(e1242,f2,negative).
example(e1242,f3,negative).
example(e1242,f4,negative).
example(e1242,f5,positive).
example(e1242,f6,negative).
example(e1242,f7,positive).
example(e1242,f8,positive).
example(e1242,f9,positive).
example(e1242,f10,positive).
example(e1243,f1,positive).
example(e1243,f2,negative).
example(e1243,f3,positive).
example(e1243,f4,positive).
example(e1243,f5,positive).
example(e1243,f6,positive).
example(e1243,f7,negative).
example(e1243,f8,positive).
example(e1243,f9,negative).
example(e1243,f10,positive).
example(e1244,f1,negative).
example(e1244,f2,negative).
example(e1244,f3,negative).
example(e1244,f4,negative).
example(e1244,f5,negative).
example(e1244,f6,positive).
example(e1244,f7,positive).
example(e1244,f8,negative).
example(e1244,f9,positive).
example(e1244,f10,negative).
example(e1245,f1,positive).
example(e1245,f2,negative).
example(e1245,f3,positive).
example(e1245,f4,negative).
example(e1245,f5,negative).
example(e1245,f6,negative).
example(e1245,f7,negative).
example(e1245,f8,negative).
example(e1245,f9,positive).
example(e1245,f10,positive).
example(e1246,f1,positive).
example(e1246,f2,positive).
example(e1246,f3,negative).
example(e1246,f4,negative).
example(e1246,f5,negative).
example(e1246,f6,negative).
example(e1246,f7,positive).
example(e1246,f8,negative).
example(e1246,f9,negative).
example(e1246,f10,positive).
example(e1247,f1,positive).
example(e1247,f2,negative).
example(e1247,f3,positive).
example(e1247,f4,negative).
example(e1247,f5,positive).
example(e1247,f6,negative).
example(e1247,f7,positive).
example(e1247,f8,negative).
example(e1247,f9,negative).
example(e1247,f10,negative).
example(e1248,f1,positive).
example(e1248,f2,positive).
example(e1248,f3,negative).
example(e1248,f4,positive).
example(e1248,f5,negative).
example(e1248,f6,negative).
example(e1248,f7,positive).
example(e1248,f8,positive).
example(e1248,f9,negative).
example(e1248,f10,negative).
example(e1249,f1,negative).
example(e1249,f2,negative).
example(e1249,f3,positive).
example(e1249,f4,negative).
example(e1249,f5,negative).
example(e1249,f6,negative).
example(e1249,f7,negative).
example(e1249,f8,negative).
example(e1249,f9,negative).
example(e1249,f10,negative).
example(e1250,f1,positive).
example(e1250,f2,positive).
example(e1250,f3,negative).
example(e1250,f4,positive).
example(e1250,f5,negative).
example(e1250,f6,negative).
example(e1250,f7,positive).
example(e1250,f8,positive).
example(e1250,f9,negative).
example(e1250,f10,positive).
example(e1251,f1,positive).
example(e1251,f2,negative).
example(e1251,f3,positive).
example(e1251,f4,positive).
example(e1251,f5,positive).
example(e1251,f6,negative).
example(e1251,f7,positive).
example(e1251,f8,negative).
example(e1251,f9,negative).
example(e1251,f10,positive).
example(e1252,f1,negative).
example(e1252,f2,positive).
example(e1252,f3,positive).
example(e1252,f4,positive).
example(e1252,f5,negative).
example(e1252,f6,negative).
example(e1252,f7,negative).
example(e1252,f8,positive).
example(e1252,f9,negative).
example(e1252,f10,positive).
example(e1253,f1,negative).
example(e1253,f2,negative).
example(e1253,f3,positive).
example(e1253,f4,positive).
example(e1253,f5,positive).
example(e1253,f6,positive).
example(e1253,f7,positive).
example(e1253,f8,positive).
example(e1253,f9,negative).
example(e1253,f10,negative).
example(e1254,f1,negative).
example(e1254,f2,positive).
example(e1254,f3,negative).
example(e1254,f4,negative).
example(e1254,f5,positive).
example(e1254,f6,positive).
example(e1254,f7,negative).
example(e1254,f8,positive).
example(e1254,f9,negative).
example(e1254,f10,negative).
example(e1255,f1,positive).
example(e1255,f2,negative).
example(e1255,f3,positive).
example(e1255,f4,negative).
example(e1255,f5,negative).
example(e1255,f6,negative).
example(e1255,f7,negative).
example(e1255,f8,negative).
example(e1255,f9,positive).
example(e1255,f10,negative).
example(e1256,f1,negative).
example(e1256,f2,negative).
example(e1256,f3,positive).
example(e1256,f4,negative).
example(e1256,f5,negative).
example(e1256,f6,positive).
example(e1256,f7,negative).
example(e1256,f8,negative).
example(e1256,f9,positive).
example(e1256,f10,negative).
example(e1257,f1,positive).
example(e1257,f2,negative).
example(e1257,f3,negative).
example(e1257,f4,negative).
example(e1257,f5,negative).
example(e1257,f6,negative).
example(e1257,f7,positive).
example(e1257,f8,negative).
example(e1257,f9,negative).
example(e1257,f10,negative).
example(e1258,f1,positive).
example(e1258,f2,positive).
example(e1258,f3,positive).
example(e1258,f4,positive).
example(e1258,f5,positive).
example(e1258,f6,negative).
example(e1258,f7,negative).
example(e1258,f8,positive).
example(e1258,f9,positive).
example(e1258,f10,negative).
example(e1259,f1,positive).
example(e1259,f2,negative).
example(e1259,f3,negative).
example(e1259,f4,negative).
example(e1259,f5,positive).
example(e1259,f6,negative).
example(e1259,f7,negative).
example(e1259,f8,positive).
example(e1259,f9,negative).
example(e1259,f10,negative).
example(e1260,f1,positive).
example(e1260,f2,positive).
example(e1260,f3,negative).
example(e1260,f4,negative).
example(e1260,f5,negative).
example(e1260,f6,negative).
example(e1260,f7,negative).
example(e1260,f8,positive).
example(e1260,f9,positive).
example(e1260,f10,negative).
example(e1261,f1,negative).
example(e1261,f2,negative).
example(e1261,f3,positive).
example(e1261,f4,positive).
example(e1261,f5,negative).
example(e1261,f6,positive).
example(e1261,f7,negative).
example(e1261,f8,positive).
example(e1261,f9,negative).
example(e1261,f10,positive).
example(e1262,f1,negative).
example(e1262,f2,positive).
example(e1262,f3,negative).
example(e1262,f4,positive).
example(e1262,f5,positive).
example(e1262,f6,negative).
example(e1262,f7,negative).
example(e1262,f8,positive).
example(e1262,f9,positive).
example(e1262,f10,negative).
example(e1263,f1,positive).
example(e1263,f2,positive).
example(e1263,f3,positive).
example(e1263,f4,positive).
example(e1263,f5,negative).
example(e1263,f6,negative).
example(e1263,f7,negative).
example(e1263,f8,negative).
example(e1263,f9,positive).
example(e1263,f10,positive).
example(e1264,f1,negative).
example(e1264,f2,negative).
example(e1264,f3,negative).
example(e1264,f4,positive).
example(e1264,f5,positive).
example(e1264,f6,positive).
example(e1264,f7,positive).
example(e1264,f8,negative).
example(e1264,f9,negative).
example(e1264,f10,negative).
example(e1265,f1,negative).
example(e1265,f2,negative).
example(e1265,f3,positive).
example(e1265,f4,negative).
example(e1265,f5,positive).
example(e1265,f6,negative).
example(e1265,f7,negative).
example(e1265,f8,negative).
example(e1265,f9,positive).
example(e1265,f10,negative).
example(e1266,f1,positive).
example(e1266,f2,negative).
example(e1266,f3,negative).
example(e1266,f4,positive).
example(e1266,f5,negative).
example(e1266,f6,positive).
example(e1266,f7,negative).
example(e1266,f8,negative).
example(e1266,f9,positive).
example(e1266,f10,negative).
example(e1267,f1,negative).
example(e1267,f2,positive).
example(e1267,f3,positive).
example(e1267,f4,negative).
example(e1267,f5,negative).
example(e1267,f6,positive).
example(e1267,f7,positive).
example(e1267,f8,positive).
example(e1267,f9,positive).
example(e1267,f10,negative).
example(e1268,f1,positive).
example(e1268,f2,positive).
example(e1268,f3,positive).
example(e1268,f4,negative).
example(e1268,f5,positive).
example(e1268,f6,positive).
example(e1268,f7,negative).
example(e1268,f8,positive).
example(e1268,f9,positive).
example(e1268,f10,negative).
example(e1269,f1,negative).
example(e1269,f2,positive).
example(e1269,f3,positive).
example(e1269,f4,positive).
example(e1269,f5,negative).
example(e1269,f6,negative).
example(e1269,f7,negative).
example(e1269,f8,positive).
example(e1269,f9,positive).
example(e1269,f10,negative).
example(e1270,f1,negative).
example(e1270,f2,negative).
example(e1270,f3,positive).
example(e1270,f4,negative).
example(e1270,f5,positive).
example(e1270,f6,positive).
example(e1270,f7,positive).
example(e1270,f8,positive).
example(e1270,f9,negative).
example(e1270,f10,negative).
example(e1271,f1,negative).
example(e1271,f2,positive).
example(e1271,f3,positive).
example(e1271,f4,positive).
example(e1271,f5,positive).
example(e1271,f6,positive).
example(e1271,f7,positive).
example(e1271,f8,positive).
example(e1271,f9,positive).
example(e1271,f10,negative).
example(e1272,f1,negative).
example(e1272,f2,positive).
example(e1272,f3,negative).
example(e1272,f4,positive).
example(e1272,f5,negative).
example(e1272,f6,negative).
example(e1272,f7,positive).
example(e1272,f8,negative).
example(e1272,f9,negative).
example(e1272,f10,positive).
example(e1273,f1,positive).
example(e1273,f2,positive).
example(e1273,f3,negative).
example(e1273,f4,negative).
example(e1273,f5,negative).
example(e1273,f6,negative).
example(e1273,f7,positive).
example(e1273,f8,negative).
example(e1273,f9,positive).
example(e1273,f10,positive).
example(e1274,f1,positive).
example(e1274,f2,positive).
example(e1274,f3,positive).
example(e1274,f4,negative).
example(e1274,f5,negative).
example(e1274,f6,positive).
example(e1274,f7,positive).
example(e1274,f8,negative).
example(e1274,f9,negative).
example(e1274,f10,positive).
example(e1275,f1,positive).
example(e1275,f2,positive).
example(e1275,f3,negative).
example(e1275,f4,positive).
example(e1275,f5,negative).
example(e1275,f6,positive).
example(e1275,f7,positive).
example(e1275,f8,negative).
example(e1275,f9,positive).
example(e1275,f10,negative).
example(e1276,f1,negative).
example(e1276,f2,positive).
example(e1276,f3,negative).
example(e1276,f4,negative).
example(e1276,f5,negative).
example(e1276,f6,positive).
example(e1276,f7,positive).
example(e1276,f8,positive).
example(e1276,f9,negative).
example(e1276,f10,negative).
example(e1277,f1,positive).
example(e1277,f2,negative).
example(e1277,f3,positive).
example(e1277,f4,negative).
example(e1277,f5,negative).
example(e1277,f6,positive).
example(e1277,f7,positive).
example(e1277,f8,negative).
example(e1277,f9,positive).
example(e1277,f10,positive).
example(e1278,f1,negative).
example(e1278,f2,positive).
example(e1278,f3,negative).
example(e1278,f4,negative).
example(e1278,f5,positive).
example(e1278,f6,positive).
example(e1278,f7,positive).
example(e1278,f8,negative).
example(e1278,f9,positive).
example(e1278,f10,positive).
example(e1279,f1,negative).
example(e1279,f2,positive).
example(e1279,f3,negative).
example(e1279,f4,negative).
example(e1279,f5,negative).
example(e1279,f6,positive).
example(e1279,f7,negative).
example(e1279,f8,positive).
example(e1279,f9,positive).
example(e1279,f10,positive).
example(e1280,f1,positive).
example(e1280,f2,negative).
example(e1280,f3,positive).
example(e1280,f4,positive).
example(e1280,f5,negative).
example(e1280,f6,negative).
example(e1280,f7,positive).
example(e1280,f8,positive).
example(e1280,f9,negative).
example(e1280,f10,negative).
example(e1281,f1,negative).
example(e1281,f2,negative).
example(e1281,f3,positive).
example(e1281,f4,positive).
example(e1281,f5,positive).
example(e1281,f6,positive).
example(e1281,f7,negative).
example(e1281,f8,negative).
example(e1281,f9,positive).
example(e1281,f10,negative).
example(e1282,f1,negative).
example(e1282,f2,negative).
example(e1282,f3,positive).
example(e1282,f4,negative).
example(e1282,f5,negative).
example(e1282,f6,positive).
example(e1282,f7,positive).
example(e1282,f8,positive).
example(e1282,f9,positive).
example(e1282,f10,negative).
example(e1283,f1,positive).
example(e1283,f2,positive).
example(e1283,f3,negative).
example(e1283,f4,positive).
example(e1283,f5,negative).
example(e1283,f6,negative).
example(e1283,f7,negative).
example(e1283,f8,positive).
example(e1283,f9,positive).
example(e1283,f10,negative).
example(e1284,f1,positive).
example(e1284,f2,negative).
example(e1284,f3,positive).
example(e1284,f4,positive).
example(e1284,f5,negative).
example(e1284,f6,negative).
example(e1284,f7,positive).
example(e1284,f8,positive).
example(e1284,f9,negative).
example(e1284,f10,positive).
example(e1285,f1,negative).
example(e1285,f2,negative).
example(e1285,f3,negative).
example(e1285,f4,positive).
example(e1285,f5,negative).
example(e1285,f6,positive).
example(e1285,f7,positive).
example(e1285,f8,negative).
example(e1285,f9,positive).
example(e1285,f10,positive).
example(e1286,f1,negative).
example(e1286,f2,positive).
example(e1286,f3,negative).
example(e1286,f4,negative).
example(e1286,f5,positive).
example(e1286,f6,positive).
example(e1286,f7,positive).
example(e1286,f8,positive).
example(e1286,f9,positive).
example(e1286,f10,negative).
example(e1287,f1,negative).
example(e1287,f2,negative).
example(e1287,f3,positive).
example(e1287,f4,negative).
example(e1287,f5,positive).
example(e1287,f6,negative).
example(e1287,f7,negative).
example(e1287,f8,positive).
example(e1287,f9,positive).
example(e1287,f10,positive).
example(e1288,f1,positive).
example(e1288,f2,negative).
example(e1288,f3,positive).
example(e1288,f4,positive).
example(e1288,f5,negative).
example(e1288,f6,positive).
example(e1288,f7,negative).
example(e1288,f8,negative).
example(e1288,f9,negative).
example(e1288,f10,negative).
example(e1289,f1,positive).
example(e1289,f2,negative).
example(e1289,f3,negative).
example(e1289,f4,negative).
example(e1289,f5,positive).
example(e1289,f6,positive).
example(e1289,f7,positive).
example(e1289,f8,negative).
example(e1289,f9,positive).
example(e1289,f10,positive).
example(e1290,f1,positive).
example(e1290,f2,positive).
example(e1290,f3,negative).
example(e1290,f4,negative).
example(e1290,f5,negative).
example(e1290,f6,positive).
example(e1290,f7,negative).
example(e1290,f8,positive).
example(e1290,f9,positive).
example(e1290,f10,negative).
example(e1291,f1,positive).
example(e1291,f2,negative).
example(e1291,f3,positive).
example(e1291,f4,negative).
example(e1291,f5,positive).
example(e1291,f6,positive).
example(e1291,f7,positive).
example(e1291,f8,negative).
example(e1291,f9,negative).
example(e1291,f10,positive).
example(e1292,f1,positive).
example(e1292,f2,positive).
example(e1292,f3,positive).
example(e1292,f4,negative).
example(e1292,f5,positive).
example(e1292,f6,negative).
example(e1292,f7,positive).
example(e1292,f8,negative).
example(e1292,f9,positive).
example(e1292,f10,negative).
example(e1293,f1,negative).
example(e1293,f2,positive).
example(e1293,f3,negative).
example(e1293,f4,negative).
example(e1293,f5,negative).
example(e1293,f6,positive).
example(e1293,f7,negative).
example(e1293,f8,positive).
example(e1293,f9,positive).
example(e1293,f10,negative).
example(e1294,f1,positive).
example(e1294,f2,positive).
example(e1294,f3,negative).
example(e1294,f4,positive).
example(e1294,f5,negative).
example(e1294,f6,negative).
example(e1294,f7,negative).
example(e1294,f8,negative).
example(e1294,f9,positive).
example(e1294,f10,negative).
example(e1295,f1,negative).
example(e1295,f2,negative).
example(e1295,f3,negative).
example(e1295,f4,negative).
example(e1295,f5,negative).
example(e1295,f6,positive).
example(e1295,f7,positive).
example(e1295,f8,negative).
example(e1295,f9,negative).
example(e1295,f10,positive).
example(e1296,f1,negative).
example(e1296,f2,negative).
example(e1296,f3,negative).
example(e1296,f4,negative).
example(e1296,f5,negative).
example(e1296,f6,negative).
example(e1296,f7,positive).
example(e1296,f8,negative).
example(e1296,f9,negative).
example(e1296,f10,positive).
example(e1297,f1,positive).
example(e1297,f2,negative).
example(e1297,f3,negative).
example(e1297,f4,negative).
example(e1297,f5,positive).
example(e1297,f6,positive).
example(e1297,f7,positive).
example(e1297,f8,positive).
example(e1297,f9,positive).
example(e1297,f10,negative).
example(e1298,f1,positive).
example(e1298,f2,negative).
example(e1298,f3,positive).
example(e1298,f4,positive).
example(e1298,f5,negative).
example(e1298,f6,positive).
example(e1298,f7,negative).
example(e1298,f8,positive).
example(e1298,f9,positive).
example(e1298,f10,positive).
example(e1299,f1,negative).
example(e1299,f2,negative).
example(e1299,f3,negative).
example(e1299,f4,positive).
example(e1299,f5,negative).
example(e1299,f6,positive).
example(e1299,f7,negative).
example(e1299,f8,positive).
example(e1299,f9,positive).
example(e1299,f10,positive).
example(e1300,f1,negative).
example(e1300,f2,positive).
example(e1300,f3,positive).
example(e1300,f4,positive).
example(e1300,f5,negative).
example(e1300,f6,positive).
example(e1300,f7,negative).
example(e1300,f8,positive).
example(e1300,f9,positive).
example(e1300,f10,negative).
example(e1301,f1,positive).
example(e1301,f2,positive).
example(e1301,f3,positive).
example(e1301,f4,positive).
example(e1301,f5,negative).
example(e1301,f6,positive).
example(e1301,f7,negative).
example(e1301,f8,negative).
example(e1301,f9,positive).
example(e1301,f10,positive).
example(e1302,f1,positive).
example(e1302,f2,positive).
example(e1302,f3,positive).
example(e1302,f4,negative).
example(e1302,f5,negative).
example(e1302,f6,positive).
example(e1302,f7,positive).
example(e1302,f8,negative).
example(e1302,f9,negative).
example(e1302,f10,negative).
example(e1303,f1,positive).
example(e1303,f2,negative).
example(e1303,f3,positive).
example(e1303,f4,positive).
example(e1303,f5,positive).
example(e1303,f6,positive).
example(e1303,f7,negative).
example(e1303,f8,negative).
example(e1303,f9,negative).
example(e1303,f10,positive).
example(e1304,f1,negative).
example(e1304,f2,negative).
example(e1304,f3,positive).
example(e1304,f4,positive).
example(e1304,f5,positive).
example(e1304,f6,negative).
example(e1304,f7,positive).
example(e1304,f8,negative).
example(e1304,f9,negative).
example(e1304,f10,positive).
example(e1305,f1,positive).
example(e1305,f2,negative).
example(e1305,f3,positive).
example(e1305,f4,negative).
example(e1305,f5,negative).
example(e1305,f6,positive).
example(e1305,f7,negative).
example(e1305,f8,positive).
example(e1305,f9,positive).
example(e1305,f10,negative).
example(e1306,f1,positive).
example(e1306,f2,positive).
example(e1306,f3,negative).
example(e1306,f4,positive).
example(e1306,f5,positive).
example(e1306,f6,negative).
example(e1306,f7,negative).
example(e1306,f8,positive).
example(e1306,f9,negative).
example(e1306,f10,negative).
example(e1307,f1,positive).
example(e1307,f2,positive).
example(e1307,f3,positive).
example(e1307,f4,negative).
example(e1307,f5,positive).
example(e1307,f6,negative).
example(e1307,f7,negative).
example(e1307,f8,negative).
example(e1307,f9,negative).
example(e1307,f10,negative).
example(e1308,f1,positive).
example(e1308,f2,positive).
example(e1308,f3,positive).
example(e1308,f4,positive).
example(e1308,f5,positive).
example(e1308,f6,positive).
example(e1308,f7,positive).
example(e1308,f8,positive).
example(e1308,f9,positive).
example(e1308,f10,negative).
example(e1309,f1,negative).
example(e1309,f2,positive).
example(e1309,f3,positive).
example(e1309,f4,negative).
example(e1309,f5,negative).
example(e1309,f6,negative).
example(e1309,f7,negative).
example(e1309,f8,negative).
example(e1309,f9,negative).
example(e1309,f10,positive).
example(e1310,f1,negative).
example(e1310,f2,positive).
example(e1310,f3,positive).
example(e1310,f4,positive).
example(e1310,f5,negative).
example(e1310,f6,positive).
example(e1310,f7,positive).
example(e1310,f8,negative).
example(e1310,f9,negative).
example(e1310,f10,negative).
example(e1311,f1,negative).
example(e1311,f2,negative).
example(e1311,f3,positive).
example(e1311,f4,negative).
example(e1311,f5,positive).
example(e1311,f6,negative).
example(e1311,f7,negative).
example(e1311,f8,negative).
example(e1311,f9,negative).
example(e1311,f10,negative).
example(e1312,f1,negative).
example(e1312,f2,negative).
example(e1312,f3,positive).
example(e1312,f4,negative).
example(e1312,f5,positive).
example(e1312,f6,positive).
example(e1312,f7,negative).
example(e1312,f8,negative).
example(e1312,f9,positive).
example(e1312,f10,positive).
example(e1313,f1,positive).
example(e1313,f2,negative).
example(e1313,f3,negative).
example(e1313,f4,positive).
example(e1313,f5,negative).
example(e1313,f6,positive).
example(e1313,f7,positive).
example(e1313,f8,positive).
example(e1313,f9,negative).
example(e1313,f10,positive).
example(e1314,f1,positive).
example(e1314,f2,negative).
example(e1314,f3,negative).
example(e1314,f4,negative).
example(e1314,f5,positive).
example(e1314,f6,negative).
example(e1314,f7,negative).
example(e1314,f8,negative).
example(e1314,f9,positive).
example(e1314,f10,positive).
example(e1315,f1,negative).
example(e1315,f2,positive).
example(e1315,f3,positive).
example(e1315,f4,positive).
example(e1315,f5,positive).
example(e1315,f6,negative).
example(e1315,f7,negative).
example(e1315,f8,negative).
example(e1315,f9,positive).
example(e1315,f10,negative).
example(e1316,f1,positive).
example(e1316,f2,positive).
example(e1316,f3,negative).
example(e1316,f4,negative).
example(e1316,f5,positive).
example(e1316,f6,positive).
example(e1316,f7,positive).
example(e1316,f8,negative).
example(e1316,f9,positive).
example(e1316,f10,positive).
example(e1317,f1,negative).
example(e1317,f2,negative).
example(e1317,f3,positive).
example(e1317,f4,negative).
example(e1317,f5,positive).
example(e1317,f6,positive).
example(e1317,f7,positive).
example(e1317,f8,negative).
example(e1317,f9,negative).
example(e1317,f10,negative).
example(e1318,f1,positive).
example(e1318,f2,negative).
example(e1318,f3,positive).
example(e1318,f4,positive).
example(e1318,f5,positive).
example(e1318,f6,positive).
example(e1318,f7,positive).
example(e1318,f8,positive).
example(e1318,f9,positive).
example(e1318,f10,positive).
example(e1319,f1,negative).
example(e1319,f2,negative).
example(e1319,f3,positive).
example(e1319,f4,negative).
example(e1319,f5,positive).
example(e1319,f6,positive).
example(e1319,f7,positive).
example(e1319,f8,negative).
example(e1319,f9,negative).
example(e1319,f10,positive).
example(e1320,f1,positive).
example(e1320,f2,positive).
example(e1320,f3,positive).
example(e1320,f4,positive).
example(e1320,f5,positive).
example(e1320,f6,negative).
example(e1320,f7,positive).
example(e1320,f8,positive).
example(e1320,f9,negative).
example(e1320,f10,negative).
example(e1321,f1,negative).
example(e1321,f2,negative).
example(e1321,f3,negative).
example(e1321,f4,positive).
example(e1321,f5,negative).
example(e1321,f6,negative).
example(e1321,f7,positive).
example(e1321,f8,positive).
example(e1321,f9,positive).
example(e1321,f10,negative).
example(e1322,f1,negative).
example(e1322,f2,negative).
example(e1322,f3,negative).
example(e1322,f4,positive).
example(e1322,f5,positive).
example(e1322,f6,positive).
example(e1322,f7,negative).
example(e1322,f8,negative).
example(e1322,f9,negative).
example(e1322,f10,positive).
example(e1323,f1,negative).
example(e1323,f2,positive).
example(e1323,f3,negative).
example(e1323,f4,negative).
example(e1323,f5,positive).
example(e1323,f6,negative).
example(e1323,f7,negative).
example(e1323,f8,positive).
example(e1323,f9,negative).
example(e1323,f10,positive).
example(e1324,f1,positive).
example(e1324,f2,negative).
example(e1324,f3,positive).
example(e1324,f4,negative).
example(e1324,f5,positive).
example(e1324,f6,negative).
example(e1324,f7,positive).
example(e1324,f8,positive).
example(e1324,f9,positive).
example(e1324,f10,positive).
target(e1,positive).
target(e2,positive).
target(e3,positive).
target(e4,positive).
target(e5,positive).
target(e6,negative).
target(e7,positive).
target(e8,positive).
target(e9,positive).
target(e10,positive).
target(e11,positive).
target(e12,positive).
target(e13,positive).
target(e14,positive).
target(e15,positive).
target(e16,positive).
target(e17,positive).
target(e18,positive).
target(e19,positive).
target(e20,positive).
target(e21,negative).
target(e22,positive).
target(e23,positive).
target(e24,positive).
target(e25,positive).
target(e26,positive).
target(e27,negative).
target(e28,positive).
target(e29,positive).
target(e30,positive).
target(e31,positive).
target(e32,positive).
target(e33,positive).
target(e34,positive).
target(e35,negative).
target(e36,negative).
target(e37,negative).
target(e38,positive).
target(e39,positive).
target(e40,positive).
target(e41,positive).
target(e42,positive).
target(e43,positive).
target(e44,negative).
target(e45,positive).
target(e46,positive).
target(e47,positive).
target(e48,positive).
target(e49,positive).
target(e50,positive).
target(e51,positive).
target(e52,positive).
target(e53,positive).
target(e54,positive).
target(e55,positive).
target(e56,positive).
target(e57,positive).
target(e58,positive).
target(e59,positive).
target(e60,positive).
target(e61,positive).
target(e62,negative).
target(e63,positive).
target(e64,positive).
target(e65,positive).
target(e66,positive).
target(e67,positive).
target(e68,negative).
target(e69,positive).
target(e70,negative).
target(e71,positive).
target(e72,positive).
target(e73,positive).
target(e74,positive).
target(e75,positive).
target(e76,positive).
target(e77,positive).
target(e78,positive).
target(e79,positive).
target(e80,negative).
target(e81,positive).
target(e82,positive).
target(e83,negative).
target(e84,positive).
target(e85,positive).
target(e86,negative).
target(e87,positive).
target(e88,negative).
target(e89,negative).
target(e90,positive).
target(e91,positive).
target(e92,positive).
target(e93,negative).
target(e94,positive).
target(e95,positive).
target(e96,positive).
target(e97,positive).
target(e98,positive).
target(e99,positive).
target(e100,negative).
target(e101,positive).
target(e102,positive).
target(e103,positive).
target(e104,positive).
target(e105,positive).
target(e106,negative).
target(e107,negative).
target(e108,negative).
target(e109,positive).
target(e110,positive).
target(e111,positive).
target(e112,positive).
target(e113,positive).
target(e114,positive).
target(e115,positive).
target(e116,positive).
target(e117,positive).
target(e118,positive).
target(e119,positive).
target(e120,negative).
target(e121,negative).
target(e122,positive).
target(e123,positive).
target(e124,positive).
target(e125,positive).
target(e126,negative).
target(e127,positive).
target(e128,positive).
target(e129,positive).
target(e130,positive).
target(e131,positive).
target(e132,positive).
target(e133,positive).
target(e134,positive).
target(e135,negative).
target(e136,positive).
target(e137,positive).
target(e138,positive).
target(e139,negative).
target(e140,positive).
target(e141,positive).
target(e142,positive).
target(e143,positive).
target(e144,positive).
target(e145,positive).
target(e146,negative).
target(e147,positive).
target(e148,negative).
target(e149,positive).
target(e150,positive).
target(e151,positive).
target(e152,positive).
target(e153,positive).
target(e154,negative).
target(e155,positive).
target(e156,positive).
target(e157,positive).
target(e158,positive).
target(e159,positive).
target(e160,positive).
target(e161,negative).
target(e162,positive).
target(e163,negative).
target(e164,positive).
target(e165,positive).
target(e166,positive).
target(e167,positive).
target(e168,negative).
target(e169,positive).
target(e170,positive).
target(e171,positive).
target(e172,positive).
target(e173,positive).
target(e174,negative).
target(e175,positive).
target(e176,positive).
target(e177,negative).
target(e178,negative).
target(e179,positive).
target(e180,negative).
target(e181,negative).
target(e182,positive).
target(e183,negative).
target(e184,positive).
target(e185,negative).
target(e186,positive).
target(e187,positive).
target(e188,positive).
target(e189,negative).
target(e190,positive).
target(e191,positive).
target(e192,positive).
target(e193,positive).
target(e194,positive).
target(e195,positive).
target(e196,positive).
target(e197,positive).
target(e198,positive).
target(e199,positive).
target(e200,positive).
target(e201,negative).
target(e202,positive).
target(e203,positive).
target(e204,positive).
target(e205,positive).
target(e206,positive).
target(e207,positive).
target(e208,positive).
target(e209,positive).
target(e210,positive).
target(e211,positive).
target(e212,positive).
target(e213,negative).
target(e214,positive).
target(e215,positive).
target(e216,positive).
target(e217,positive).
target(e218,positive).
target(e219,positive).
target(e220,negative).
target(e221,negative).
target(e222,negative).
target(e223,negative).
target(e224,positive).
target(e225,positive).
target(e226,positive).
target(e227,positive).
target(e228,positive).
target(e229,positive).
target(e230,positive).
target(e231,positive).
target(e232,positive).
target(e233,positive).
target(e234,positive).
target(e235,negative).
target(e236,positive).
target(e237,positive).
target(e238,negative).
target(e239,positive).
target(e240,positive).
target(e241,positive).
target(e242,positive).
target(e243,positive).
target(e244,positive).
target(e245,negative).
target(e246,positive).
target(e247,negative).
target(e248,positive).
target(e249,positive).
target(e250,positive).
target(e251,positive).
target(e252,negative).
target(e253,negative).
target(e254,negative).
target(e255,positive).
target(e256,positive).
target(e257,positive).
target(e258,positive).
target(e259,negative).
target(e260,positive).
target(e261,negative).
target(e262,negative).
target(e263,negative).
target(e264,positive).
target(e265,positive).
target(e266,negative).
target(e267,positive).
target(e268,positive).
target(e269,positive).
target(e270,positive).
target(e271,positive).
target(e272,positive).
target(e273,positive).
target(e274,positive).
target(e275,positive).
target(e276,positive).
target(e277,positive).
target(e278,positive).
target(e279,positive).
target(e280,positive).
target(e281,positive).
target(e282,positive).
target(e283,negative).
target(e284,positive).
target(e285,positive).
target(e286,positive).
target(e287,positive).
target(e288,positive).
target(e289,positive).
target(e290,positive).
target(e291,positive).
target(e292,positive).
target(e293,negative).
target(e294,positive).
target(e295,positive).
target(e296,positive).
target(e297,positive).
target(e298,negative).
target(e299,positive).
target(e300,positive).
target(e301,positive).
target(e302,positive).
target(e303,positive).
target(e304,positive).
target(e305,positive).
target(e306,positive).
target(e307,positive).
target(e308,positive).
target(e309,positive).
target(e310,positive).
target(e311,positive).
target(e312,positive).
target(e313,positive).
target(e314,positive).
target(e315,positive).
target(e316,positive).
target(e317,positive).
target(e318,positive).
target(e319,positive).
target(e320,positive).
target(e321,negative).
target(e322,positive).
target(e323,positive).
target(e324,negative).
target(e325,negative).
target(e326,positive).
target(e327,negative).
target(e328,positive).
target(e329,positive).
target(e330,positive).
target(e331,positive).
target(e332,negative).
target(e333,positive).
target(e334,positive).
target(e335,negative).
target(e336,negative).
target(e337,negative).
target(e338,positive).
target(e339,positive).
target(e340,positive).
target(e341,positive).
target(e342,positive).
target(e343,positive).
target(e344,positive).
target(e345,positive).
target(e346,positive).
target(e347,positive).
target(e348,positive).
target(e349,negative).
target(e350,positive).
target(e351,negative).
target(e352,positive).
target(e353,negative).
target(e354,positive).
target(e355,positive).
target(e356,positive).
target(e357,negative).
target(e358,negative).
target(e359,negative).
target(e360,positive).
target(e361,positive).
target(e362,negative).
target(e363,positive).
target(e364,positive).
target(e365,negative).
target(e366,positive).
target(e367,positive).
target(e368,positive).
target(e369,positive).
target(e370,positive).
target(e371,positive).
target(e372,positive).
target(e373,positive).
target(e374,positive).
target(e375,negative).
target(e376,positive).
target(e377,positive).
target(e378,positive).
target(e379,positive).
target(e380,positive).
target(e381,positive).
target(e382,positive).
target(e383,positive).
target(e384,negative).
target(e385,positive).
target(e386,positive).
target(e387,positive).
target(e388,negative).
target(e389,positive).
target(e390,positive).
target(e391,positive).
target(e392,positive).
target(e393,positive).
target(e394,positive).
target(e395,positive).
target(e396,positive).
target(e397,positive).
target(e398,negative).
target(e399,positive).
target(e400,positive).
target(e401,negative).
target(e402,positive).
target(e403,negative).
target(e404,negative).
target(e405,positive).
target(e406,positive).
target(e407,positive).
target(e408,negative).
target(e409,positive).
target(e410,positive).
target(e411,positive).
target(e412,positive).
target(e413,negative).
target(e414,negative).
target(e415,positive).
target(e416,positive).
target(e417,positive).
target(e418,positive).
target(e419,positive).
target(e420,positive).
target(e421,positive).
target(e422,negative).
target(e423,positive).
target(e424,positive).
target(e425,negative).
target(e426,positive).
target(e427,positive).
target(e428,positive).
target(e429,negative).
target(e430,positive).
target(e431,positive).
target(e432,positive).
target(e433,positive).
target(e434,negative).
target(e435,positive).
target(e436,positive).
target(e437,negative).
target(e438,positive).
target(e439,positive).
target(e440,positive).
target(e441,positive).
target(e442,positive).
target(e443,positive).
target(e444,positive).
target(e445,positive).
target(e446,positive).
target(e447,positive).
target(e448,positive).
target(e449,positive).
target(e450,negative).
target(e451,negative).
target(e452,negative).
target(e453,positive).
target(e454,negative).
target(e455,negative).
target(e456,positive).
target(e457,positive).
target(e458,positive).
target(e459,positive).
target(e460,positive).
target(e461,positive).
target(e462,positive).
target(e463,positive).
target(e464,positive).
target(e465,negative).
target(e466,positive).
target(e467,negative).
target(e468,positive).
target(e469,positive).
target(e470,positive).
target(e471,positive).
target(e472,positive).
target(e473,positive).
target(e474,positive).
target(e475,positive).
target(e476,positive).
target(e477,positive).
target(e478,positive).
target(e479,positive).
target(e480,positive).
target(e481,positive).
target(e482,negative).
target(e483,positive).
target(e484,positive).
target(e485,positive).
target(e486,positive).
target(e487,positive).
target(e488,positive).
target(e489,positive).
target(e490,positive).
target(e491,positive).
target(e492,positive).
target(e493,positive).
target(e494,positive).
target(e495,positive).
target(e496,positive).
target(e497,positive).
target(e498,negative).
target(e499,negative).
target(e500,positive).
target(e501,positive).
target(e502,positive).
target(e503,positive).
target(e504,positive).
target(e505,negative).
target(e506,positive).
target(e507,positive).
target(e508,negative).
target(e509,positive).
target(e510,positive).
target(e511,positive).
target(e512,positive).
target(e513,positive).
target(e514,positive).
target(e515,positive).
target(e516,positive).
target(e517,positive).
target(e518,negative).
target(e519,positive).
target(e520,positive).
target(e521,positive).
target(e522,negative).
target(e523,positive).
target(e524,negative).
target(e525,positive).
target(e526,positive).
target(e527,positive).
target(e528,positive).
target(e529,positive).
target(e530,positive).
target(e531,negative).
target(e532,positive).
target(e533,positive).
target(e534,positive).
target(e535,positive).
target(e536,positive).
target(e537,positive).
target(e538,positive).
target(e539,positive).
target(e540,positive).
target(e541,positive).
target(e542,positive).
target(e543,negative).
target(e544,negative).
target(e545,positive).
target(e546,positive).
target(e547,positive).
target(e548,negative).
target(e549,positive).
target(e550,positive).
target(e551,positive).
target(e552,positive).
target(e553,positive).
target(e554,positive).
target(e555,positive).
target(e556,positive).
target(e557,positive).
target(e558,positive).
target(e559,positive).
target(e560,positive).
target(e561,positive).
target(e562,positive).
target(e563,positive).
target(e564,positive).
target(e565,positive).
target(e566,positive).
target(e567,positive).
target(e568,positive).
target(e569,negative).
target(e570,positive).
target(e571,positive).
target(e572,positive).
target(e573,negative).
target(e574,negative).
target(e575,positive).
target(e576,positive).
target(e577,positive).
target(e578,positive).
target(e579,positive).
target(e580,positive).
target(e581,negative).
target(e582,positive).
target(e583,positive).
target(e584,positive).
target(e585,positive).
target(e586,positive).
target(e587,positive).
target(e588,positive).
target(e589,negative).
target(e590,positive).
target(e591,negative).
target(e592,positive).
target(e593,negative).
target(e594,positive).
target(e595,negative).
target(e596,positive).
target(e597,negative).
target(e598,positive).
target(e599,negative).
target(e600,positive).
target(e601,positive).
target(e602,positive).
target(e603,positive).
target(e604,positive).
target(e605,positive).
target(e606,positive).
target(e607,positive).
target(e608,positive).
target(e609,positive).
target(e610,negative).
target(e611,negative).
target(e612,positive).
target(e613,positive).
target(e614,positive).
target(e615,negative).
target(e616,positive).
target(e617,positive).
target(e618,positive).
target(e619,positive).
target(e620,negative).
target(e621,positive).
target(e622,negative).
target(e623,positive).
target(e624,positive).
target(e625,positive).
target(e626,positive).
target(e627,positive).
target(e628,negative).
target(e629,negative).
target(e630,positive).
target(e631,negative).
target(e632,positive).
target(e633,positive).
target(e634,positive).
target(e635,positive).
target(e636,negative).
target(e637,positive).
target(e638,positive).
target(e639,positive).
target(e640,positive).
target(e641,positive).
target(e642,positive).
target(e643,positive).
target(e644,negative).
target(e645,positive).
target(e646,negative).
target(e647,positive).
target(e648,positive).
target(e649,negative).
target(e650,positive).
target(e651,negative).
target(e652,positive).
target(e653,positive).
target(e654,negative).
target(e655,positive).
target(e656,positive).
target(e657,positive).
target(e658,positive).
target(e659,positive).
target(e660,positive).
target(e661,positive).
target(e662,negative).
target(e663,positive).
target(e664,positive).
target(e665,positive).
target(e666,positive).
target(e667,positive).
target(e668,positive).
target(e669,positive).
target(e670,positive).
target(e671,positive).
target(e672,positive).
target(e673,negative).
target(e674,positive).
target(e675,positive).
target(e676,negative).
target(e677,positive).
target(e678,negative).
target(e679,positive).
target(e680,positive).
target(e681,positive).
target(e682,positive).
target(e683,negative).
target(e684,negative).
target(e685,negative).
target(e686,positive).
target(e687,negative).
target(e688,positive).
target(e689,negative).
target(e690,positive).
target(e691,negative).
target(e692,positive).
target(e693,positive).
target(e694,negative).
target(e695,positive).
target(e696,positive).
target(e697,positive).
target(e698,positive).
target(e699,positive).
target(e700,negative).
target(e701,positive).
target(e702,positive).
target(e703,positive).
target(e704,positive).
target(e705,positive).
target(e706,positive).
target(e707,positive).
target(e708,positive).
target(e709,positive).
target(e710,positive).
target(e711,positive).
target(e712,negative).
target(e713,positive).
target(e714,negative).
target(e715,positive).
target(e716,positive).
target(e717,positive).
target(e718,positive).
target(e719,positive).
target(e720,positive).
target(e721,positive).
target(e722,positive).
target(e723,negative).
target(e724,positive).
target(e725,positive).
target(e726,positive).
target(e727,positive).
target(e728,positive).
target(e729,positive).
target(e730,positive).
target(e731,positive).
target(e732,positive).
target(e733,positive).
target(e734,positive).
target(e735,positive).
target(e736,negative).
target(e737,positive).
target(e738,positive).
target(e739,positive).
target(e740,positive).
target(e741,positive).
target(e742,positive).
target(e743,positive).
target(e744,positive).
target(e745,positive).
target(e746,positive).
target(e747,positive).
target(e748,negative).
target(e749,positive).
target(e750,positive).
target(e751,positive).
target(e752,positive).
target(e753,positive).
target(e754,negative).
target(e755,negative).
target(e756,negative).
target(e757,positive).
target(e758,positive).
target(e759,negative).
target(e760,positive).
target(e761,positive).
target(e762,positive).
target(e763,positive).
target(e764,positive).
target(e765,negative).
target(e766,positive).
target(e767,negative).
target(e768,negative).
target(e769,positive).
target(e770,positive).
target(e771,negative).
target(e772,positive).
target(e773,positive).
target(e774,positive).
target(e775,positive).
target(e776,positive).
target(e777,negative).
target(e778,positive).
target(e779,positive).
target(e780,positive).
target(e781,negative).
target(e782,negative).
target(e783,positive).
target(e784,positive).
target(e785,positive).
target(e786,positive).
target(e787,positive).
target(e788,positive).
target(e789,negative).
target(e790,negative).
target(e791,positive).
target(e792,negative).
target(e793,positive).
target(e794,positive).
target(e795,positive).
target(e796,positive).
target(e797,positive).
target(e798,positive).
target(e799,positive).
target(e800,positive).
target(e801,positive).
target(e802,negative).
target(e803,negative).
target(e804,positive).
target(e805,negative).
target(e806,positive).
target(e807,positive).
target(e808,positive).
target(e809,negative).
target(e810,negative).
target(e811,positive).
target(e812,positive).
target(e813,negative).
target(e814,positive).
target(e815,positive).
target(e816,positive).
target(e817,negative).
target(e818,positive).
target(e819,positive).
target(e820,negative).
target(e821,positive).
target(e822,positive).
target(e823,positive).
target(e824,positive).
target(e825,negative).
target(e826,positive).
target(e827,negative).
target(e828,positive).
target(e829,positive).
target(e830,positive).
target(e831,positive).
target(e832,positive).
target(e833,negative).
target(e834,negative).
target(e835,positive).
target(e836,positive).
target(e837,positive).
target(e838,negative).
target(e839,positive).
target(e840,positive).
target(e841,negative).
target(e842,negative).
target(e843,positive).
target(e844,positive).
target(e845,positive).
target(e846,positive).
target(e847,positive).
target(e848,negative).
target(e849,positive).
target(e850,positive).
target(e851,positive).
target(e852,positive).
target(e853,positive).
target(e854,positive).
target(e855,positive).
target(e856,positive).
target(e857,positive).
target(e858,negative).
target(e859,positive).
target(e860,positive).
target(e861,negative).
target(e862,positive).
target(e863,positive).
target(e864,positive).
target(e865,negative).
target(e866,positive).
target(e867,positive).
target(e868,positive).
target(e869,positive).
target(e870,positive).
target(e871,positive).
target(e872,negative).
target(e873,positive).
target(e874,negative).
target(e875,positive).
target(e876,negative).
target(e877,positive).
target(e878,positive).
target(e879,positive).
target(e880,positive).
target(e881,positive).
target(e882,negative).
target(e883,negative).
target(e884,negative).
target(e885,positive).
target(e886,positive).
target(e887,negative).
target(e888,positive).
target(e889,positive).
target(e890,positive).
target(e891,positive).
target(e892,positive).
target(e893,positive).
target(e894,negative).
target(e895,positive).
target(e896,negative).
target(e897,positive).
target(e898,positive).
target(e899,positive).
target(e900,positive).
target(e901,positive).
target(e902,positive).
target(e903,negative).
target(e904,negative).
target(e905,positive).
target(e906,negative).
target(e907,positive).
target(e908,positive).
target(e909,positive).
target(e910,positive).
target(e911,positive).
target(e912,positive).
target(e913,positive).
target(e914,negative).
target(e915,positive).
target(e916,positive).
target(e917,positive).
target(e918,negative).
target(e919,negative).
target(e920,positive).
target(e921,positive).
target(e922,positive).
target(e923,positive).
target(e924,positive).
target(e925,positive).
target(e926,positive).
target(e927,positive).
target(e928,negative).
target(e929,negative).
target(e930,positive).
target(e931,negative).
target(e932,positive).
target(e933,positive).
target(e934,positive).
target(e935,negative).
target(e936,negative).
target(e937,positive).
target(e938,positive).
target(e939,positive).
target(e940,negative).
target(e941,negative).
target(e942,negative).
target(e943,positive).
target(e944,positive).
target(e945,positive).
target(e946,negative).
target(e947,positive).
target(e948,negative).
target(e949,positive).
target(e950,negative).
target(e951,positive).
target(e952,positive).
target(e953,positive).
target(e954,positive).
target(e955,positive).
target(e956,negative).
target(e957,negative).
target(e958,negative).
target(e959,positive).
target(e960,positive).
target(e961,positive).
target(e962,positive).
target(e963,positive).
target(e964,positive).
target(e965,positive).
target(e966,positive).
target(e967,positive).
target(e968,positive).
target(e969,positive).
target(e970,positive).
target(e971,positive).
target(e972,positive).
target(e973,positive).
target(e974,positive).
target(e975,negative).
target(e976,negative).
target(e977,positive).
target(e978,negative).
target(e979,positive).
target(e980,positive).
target(e981,positive).
target(e982,positive).
target(e983,positive).
target(e984,positive).
target(e985,negative).
target(e986,negative).
target(e987,negative).
target(e988,positive).
target(e989,positive).
target(e990,positive).
target(e991,positive).
target(e992,negative).
target(e993,negative).
target(e994,positive).
target(e995,positive).
target(e996,negative).
target(e997,positive).
target(e998,positive).
target(e999,positive).
target(e1000,positive).
target(e1001,positive).
target(e1002,negative).
target(e1003,positive).
target(e1004,positive).
target(e1005,negative).
target(e1006,negative).
target(e1007,positive).
target(e1008,positive).
target(e1009,positive).
target(e1010,negative).
target(e1011,positive).
target(e1012,positive).
target(e1013,negative).
target(e1014,positive).
target(e1015,positive).
target(e1016,positive).
target(e1017,positive).
target(e1018,positive).
target(e1019,positive).
target(e1020,positive).
target(e1021,positive).
target(e1022,positive).
target(e1023,positive).
target(e1024,positive).
target(e1025,positive).
target(e1026,positive).
target(e1027,positive).
target(e1028,positive).
target(e1029,positive).
target(e1030,positive).
target(e1031,positive).
target(e1032,positive).
target(e1033,positive).
target(e1034,positive).
target(e1035,negative).
target(e1036,positive).
target(e1037,negative).
target(e1038,positive).
target(e1039,positive).
target(e1040,positive).
target(e1041,positive).
target(e1042,negative).
target(e1043,negative).
target(e1044,positive).
target(e1045,negative).
target(e1046,negative).
target(e1047,positive).
target(e1048,negative).
target(e1049,negative).
target(e1050,positive).
target(e1051,positive).
target(e1052,positive).
target(e1053,positive).
target(e1054,negative).
target(e1055,positive).
target(e1056,positive).
target(e1057,negative).
target(e1058,positive).
target(e1059,positive).
target(e1060,positive).
target(e1061,positive).
target(e1062,positive).
target(e1063,negative).
target(e1064,positive).
target(e1065,positive).
target(e1066,positive).
target(e1067,positive).
target(e1068,positive).
target(e1069,positive).
target(e1070,positive).
target(e1071,positive).
target(e1072,positive).
target(e1073,positive).
target(e1074,positive).
target(e1075,negative).
target(e1076,positive).
target(e1077,positive).
target(e1078,positive).
target(e1079,negative).
target(e1080,positive).
target(e1081,positive).
target(e1082,positive).
target(e1083,positive).
target(e1084,positive).
target(e1085,positive).
target(e1086,negative).
target(e1087,negative).
target(e1088,positive).
target(e1089,positive).
target(e1090,positive).
target(e1091,positive).
target(e1092,positive).
target(e1093,positive).
target(e1094,positive).
target(e1095,positive).
target(e1096,negative).
target(e1097,positive).
target(e1098,positive).
target(e1099,positive).
target(e1100,positive).
target(e1101,positive).
target(e1102,positive).
target(e1103,positive).
target(e1104,positive).
target(e1105,negative).
target(e1106,negative).
target(e1107,negative).
target(e1108,positive).
target(e1109,positive).
target(e1110,negative).
target(e1111,positive).
target(e1112,positive).
target(e1113,positive).
target(e1114,positive).
target(e1115,positive).
target(e1116,positive).
target(e1117,negative).
target(e1118,positive).
target(e1119,negative).
target(e1120,negative).
target(e1121,negative).
target(e1122,positive).
target(e1123,positive).
target(e1124,negative).
target(e1125,positive).
target(e1126,positive).
target(e1127,negative).
target(e1128,positive).
target(e1129,positive).
target(e1130,positive).
target(e1131,positive).
target(e1132,negative).
target(e1133,negative).
target(e1134,positive).
target(e1135,positive).
target(e1136,positive).
target(e1137,negative).
target(e1138,positive).
target(e1139,positive).
target(e1140,negative).
target(e1141,positive).
target(e1142,positive).
target(e1143,positive).
target(e1144,positive).
target(e1145,negative).
target(e1146,positive).
target(e1147,positive).
target(e1148,positive).
target(e1149,positive).
target(e1150,negative).
target(e1151,positive).
target(e1152,positive).
target(e1153,positive).
target(e1154,positive).
target(e1155,positive).
target(e1156,positive).
target(e1157,positive).
target(e1158,negative).
target(e1159,positive).
target(e1160,positive).
target(e1161,positive).
target(e1162,positive).
target(e1163,positive).
target(e1164,positive).
target(e1165,positive).
target(e1166,positive).
target(e1167,positive).
target(e1168,positive).
target(e1169,positive).
target(e1170,positive).
target(e1171,positive).
target(e1172,positive).
target(e1173,positive).
target(e1174,negative).
target(e1175,positive).
target(e1176,positive).
target(e1177,positive).
target(e1178,positive).
target(e1179,positive).
target(e1180,positive).
target(e1181,positive).
target(e1182,positive).
target(e1183,positive).
target(e1184,positive).
target(e1185,negative).
target(e1186,negative).
target(e1187,positive).
target(e1188,positive).
target(e1189,positive).
target(e1190,negative).
target(e1191,positive).
target(e1192,positive).
target(e1193,positive).
target(e1194,negative).
target(e1195,positive).
target(e1196,negative).
target(e1197,positive).
target(e1198,positive).
target(e1199,positive).
target(e1200,positive).
target(e1201,positive).
target(e1202,positive).
target(e1203,positive).
target(e1204,positive).
target(e1205,negative).
target(e1206,positive).
target(e1207,positive).
target(e1208,positive).
target(e1209,positive).
target(e1210,positive).
target(e1211,positive).
target(e1212,positive).
target(e1213,positive).
target(e1214,negative).
target(e1215,positive).
target(e1216,negative).
target(e1217,positive).
target(e1218,positive).
target(e1219,negative).
target(e1220,negative).
target(e1221,positive).
target(e1222,negative).
target(e1223,positive).
target(e1224,positive).
target(e1225,positive).
target(e1226,positive).
target(e1227,positive).
target(e1228,positive).
target(e1229,positive).
target(e1230,positive).
target(e1231,positive).
target(e1232,negative).
target(e1233,positive).
target(e1234,positive).
target(e1235,positive).
target(e1236,negative).
target(e1237,positive).
target(e1238,positive).
target(e1239,positive).
target(e1240,positive).
target(e1241,negative).
target(e1242,positive).
target(e1243,positive).
target(e1244,positive).
target(e1245,negative).
target(e1246,negative).
target(e1247,positive).
target(e1248,positive).
target(e1249,negative).
target(e1250,positive).
target(e1251,positive).
target(e1252,positive).
target(e1253,positive).
target(e1254,positive).
target(e1255,negative).
target(e1256,positive).
target(e1257,negative).
target(e1258,positive).
target(e1259,negative).
target(e1260,negative).
target(e1261,positive).
target(e1262,positive).
target(e1263,positive).
target(e1264,positive).
target(e1265,positive).
target(e1266,positive).
target(e1267,positive).
target(e1268,positive).
target(e1269,positive).
target(e1270,positive).
target(e1271,positive).
target(e1272,negative).
target(e1273,negative).
target(e1274,positive).
target(e1275,positive).
target(e1276,positive).
target(e1277,positive).
target(e1278,positive).
target(e1279,positive).
target(e1280,positive).
target(e1281,positive).
target(e1282,positive).
target(e1283,positive).
target(e1284,positive).
target(e1285,positive).
target(e1286,positive).
target(e1287,positive).
target(e1288,positive).
target(e1289,positive).
target(e1290,positive).
target(e1291,positive).
target(e1292,positive).
target(e1293,positive).
target(e1294,negative).
target(e1295,negative).
target(e1296,negative).
target(e1297,positive).
target(e1298,positive).
target(e1299,positive).
target(e1300,positive).
target(e1301,positive).
target(e1302,positive).
target(e1303,positive).
target(e1304,positive).
target(e1305,positive).
target(e1306,positive).
target(e1307,negative).
target(e1308,positive).
target(e1309,negative).
target(e1310,positive).
target(e1311,negative).
target(e1312,positive).
target(e1313,positive).
target(e1314,negative).
target(e1315,positive).
target(e1316,positive).
target(e1317,positive).
target(e1318,positive).
target(e1319,positive).
target(e1320,positive).
target(e1321,positive).
target(e1322,positive).
target(e1323,negative).
target(e1324,positive).
feature(f1; f2; f3; f4; f5; f6; f7; f8; f9; f10).
% |--- f4 <= 0.50
% |   |--- f9 <= 0.50
% |   |   |--- f5 <= 0.50
% |   |   |   |--- f8 <= 0.50
% |   |   |   |   |--- f7 <= 0.50
% |   |   |   |   |   |--- class: 0
% |   |   |   |   |--- f7 >  0.50
% |   |   |   |   |   |--- f6 <= 0.50
% |   |   |   |   |   |   |--- class: 0
% |   |   |   |   |   |--- f6 >  0.50
% |   |   |   |   |   |   |--- f3 <= 0.50
% |   |   |   |   |   |   |   |--- class: 0
% |   |   |   |   |   |   |--- f3 >  0.50
% |   |   |   |   |   |   |   |--- class: 1
% |   |   |   |--- f8 >  0.50
% |   |   |   |   |--- f7 <= 0.50
% |   |   |   |   |   |--- f3 <= 0.50
% |   |   |   |   |   |   |--- class: 0
% |   |   |   |   |   |--- f3 >  0.50
% |   |   |   |   |   |   |--- f6 <= 0.50
% |   |   |   |   |   |   |   |--- class: 0
% |   |   |   |   |   |   |--- f6 >  0.50
% |   |   |   |   |   |   |   |--- class: 1
% |   |   |   |   |--- f7 >  0.50
% |   |   |   |   |   |--- f6 <= 0.50
% |   |   |   |   |   |   |--- f3 <= 0.50
% |   |   |   |   |   |   |   |--- class: 0
% |   |   |   |   |   |   |--- f3 >  0.50
% |   |   |   |   |   |   |   |--- class: 1
% |   |   |   |   |   |--- f6 >  0.50
% |   |   |   |   |   |   |--- class: 1
% |   |   |--- f5 >  0.50
% |   |   |   |--- f3 <= 0.50
% |   |   |   |   |--- f6 <= 0.50
% |   |   |   |   |   |--- f7 <= 0.50
% |   |   |   |   |   |   |--- class: 0
% |   |   |   |   |   |--- f7 >  0.50
% |   |   |   |   |   |   |--- f8 <= 0.50
% |   |   |   |   |   |   |   |--- class: 0
% |   |   |   |   |   |   |--- f8 >  0.50
% |   |   |   |   |   |   |   |--- class: 1
% |   |   |   |   |--- f6 >  0.50
% |   |   |   |   |   |--- f8 <= 0.50
% |   |   |   |   |   |   |--- f7 <= 0.50
% |   |   |   |   |   |   |   |--- class: 0
% |   |   |   |   |   |   |--- f7 >  0.50
% |   |   |   |   |   |   |   |--- class: 1
% |   |   |   |   |   |--- f8 >  0.50
% |   |   |   |   |   |   |--- class: 1
% |   |   |   |--- f3 >  0.50
% |   |   |   |   |--- f8 <= 0.50
% |   |   |   |   |   |--- f7 <= 0.50
% |   |   |   |   |   |   |--- f6 <= 0.50
% |   |   |   |   |   |   |   |--- class: 0
% |   |   |   |   |   |   |--- f6 >  0.50
% |   |   |   |   |   |   |   |--- class: 1
% |   |   |   |   |   |--- f7 >  0.50
% |   |   |   |   |   |   |--- class: 1
% |   |   |   |   |--- f8 >  0.50
% |   |   |   |   |   |--- class: 1
% |   |--- f9 >  0.50
% |   |   |--- f3 <= 0.50
% |   |   |   |--- f7 <= 0.50
% |   |   |   |   |--- f6 <= 0.50
% |   |   |   |   |   |--- f8 <= 0.50
% |   |   |   |   |   |   |--- class: 0
% |   |   |   |   |   |--- f8 >  0.50
% |   |   |   |   |   |   |--- f5 <= 0.50
% |   |   |   |   |   |   |   |--- class: 0
% |   |   |   |   |   |   |--- f5 >  0.50
% |   |   |   |   |   |   |   |--- class: 1
% |   |   |   |   |--- f6 >  0.50
% |   |   |   |   |   |--- f5 <= 0.50
% |   |   |   |   |   |   |--- f8 <= 0.50
% |   |   |   |   |   |   |   |--- class: 0
% |   |   |   |   |   |   |--- f8 >  0.50
% |   |   |   |   |   |   |   |--- class: 1
% |   |   |   |   |   |--- f5 >  0.50
% |   |   |   |   |   |   |--- class: 1
% |   |   |   |--- f7 >  0.50
% |   |   |   |   |--- f8 <= 0.50
% |   |   |   |   |   |--- f6 <= 0.50
% |   |   |   |   |   |   |--- f5 <= 0.50
% |   |   |   |   |   |   |   |--- class: 0
% |   |   |   |   |   |   |--- f5 >  0.50
% |   |   |   |   |   |   |   |--- class: 1
% |   |   |   |   |   |--- f6 >  0.50
% |   |   |   |   |   |   |--- class: 1
% |   |   |   |   |--- f8 >  0.50
% |   |   |   |   |   |--- class: 1
% |   |   |--- f3 >  0.50
% |   |   |   |--- f5 <= 0.50
% |   |   |   |   |--- f8 <= 0.50
% |   |   |   |   |   |--- f6 <= 0.50
% |   |   |   |   |   |   |--- f7 <= 0.50
% |   |   |   |   |   |   |   |--- class: 0
% |   |   |   |   |   |   |--- f7 >  0.50
% |   |   |   |   |   |   |   |--- class: 1
% |   |   |   |   |   |--- f6 >  0.50
% |   |   |   |   |   |   |--- class: 1
% |   |   |   |   |--- f8 >  0.50
% |   |   |   |   |   |--- class: 1
% |   |   |   |--- f5 >  0.50
% |   |   |   |   |--- class: 1
% |--- f4 >  0.50
% |   |--- f5 <= 0.50
% |   |   |--- f7 <= 0.50
% |   |   |   |--- f3 <= 0.50
% |   |   |   |   |--- f8 <= 0.50
% |   |   |   |   |   |--- f9 <= 0.50
% |   |   |   |   |   |   |--- class: 0
% |   |   |   |   |   |--- f9 >  0.50
% |   |   |   |   |   |   |--- f6 <= 0.50
% |   |   |   |   |   |   |   |--- class: 0
% |   |   |   |   |   |   |--- f6 >  0.50
% |   |   |   |   |   |   |   |--- class: 1
% |   |   |   |   |--- f8 >  0.50
% |   |   |   |   |   |--- f6 <= 0.50
% |   |   |   |   |   |   |--- f9 <= 0.50
% |   |   |   |   |   |   |   |--- class: 0
% |   |   |   |   |   |   |--- f9 >  0.50
% |   |   |   |   |   |   |   |--- class: 1
% |   |   |   |   |   |--- f6 >  0.50
% |   |   |   |   |   |   |--- class: 1
% |   |   |   |--- f3 >  0.50
% |   |   |   |   |--- f9 <= 0.50
% |   |   |   |   |   |--- f6 <= 0.50
% |   |   |   |   |   |   |--- f8 <= 0.50
% |   |   |   |   |   |   |   |--- class: 0
% |   |   |   |   |   |   |--- f8 >  0.50
% |   |   |   |   |   |   |   |--- class: 1
% |   |   |   |   |   |--- f6 >  0.50
% |   |   |   |   |   |   |--- class: 1
% |   |   |   |   |--- f9 >  0.50
% |   |   |   |   |   |--- class: 1
% |   |   |--- f7 >  0.50
% |   |   |   |--- f8 <= 0.50
% |   |   |   |   |--- f6 <= 0.50
% |   |   |   |   |   |--- f3 <= 0.50
% |   |   |   |   |   |   |--- f9 <= 0.50
% |   |   |   |   |   |   |   |--- class: 0
% |   |   |   |   |   |   |--- f9 >  0.50
% |   |   |   |   |   |   |   |--- class: 1
% |   |   |   |   |   |--- f3 >  0.50
% |   |   |   |   |   |   |--- class: 1
% |   |   |   |   |--- f6 >  0.50
% |   |   |   |   |   |--- class: 1
% |   |   |   |--- f8 >  0.50
% |   |   |   |   |--- class: 1
% |   |--- f5 >  0.50
% |   |   |--- f3 <= 0.50
% |   |   |   |--- f6 <= 0.50
% |   |   |   |   |--- f8 <= 0.50
% |   |   |   |   |   |--- f7 <= 0.50
% |   |   |   |   |   |   |--- f9 <= 0.50
% |   |   |   |   |   |   |   |--- class: 0
% |   |   |   |   |   |   |--- f9 >  0.50
% |   |   |   |   |   |   |   |--- class: 1
% |   |   |   |   |   |--- f7 >  0.50
% |   |   |   |   |   |   |--- class: 1
% |   |   |   |   |--- f8 >  0.50
% |   |   |   |   |   |--- class: 1
% |   |   |   |--- f6 >  0.50
% |   |   |   |   |--- class: 1
% |   |   |--- f3 >  0.50
% |   |   |   |--- class: 1
% Accuracy of the decision tree classifier on the training data: 1.00
% Depth of the decision tree classifier: 7
% Number of nodes in the decision tree classifier: 111
% Number of leaf nodes in the decision tree classifier: 56
