example(e1,f1,negative).
example(e1,f2,negative).
example(e1,f3,negative).
example(e1,f4,negative).
example(e1,f5,negative).
example(e1,f6,negative).
example(e1,f7,negative).
example(e1,f8,negative).
example(e1,f9,negative).
example(e1,f10,negative).
example(e1,f11,positive).
example(e2,f1,negative).
example(e2,f2,negative).
example(e2,f3,negative).
example(e2,f4,negative).
example(e2,f5,negative).
example(e2,f6,negative).
example(e2,f7,negative).
example(e2,f8,positive).
example(e2,f9,negative).
example(e2,f10,negative).
example(e2,f11,negative).
example(e3,f1,negative).
example(e3,f2,negative).
example(e3,f3,negative).
example(e3,f4,negative).
example(e3,f5,negative).
example(e3,f6,negative).
example(e3,f7,negative).
example(e3,f8,positive).
example(e3,f9,negative).
example(e3,f10,negative).
example(e3,f11,positive).
example(e4,f1,negative).
example(e4,f2,negative).
example(e4,f3,negative).
example(e4,f4,negative).
example(e4,f5,negative).
example(e4,f6,negative).
example(e4,f7,negative).
example(e4,f8,negative).
example(e4,f9,positive).
example(e4,f10,negative).
example(e4,f11,negative).
example(e5,f1,negative).
example(e5,f2,negative).
example(e5,f3,negative).
example(e5,f4,negative).
example(e5,f5,negative).
example(e5,f6,negative).
example(e5,f7,negative).
example(e5,f8,negative).
example(e5,f9,negative).
example(e5,f10,positive).
example(e5,f11,negative).
example(e6,f1,negative).
example(e6,f2,negative).
example(e6,f3,negative).
example(e6,f4,negative).
example(e6,f5,negative).
example(e6,f6,positive).
example(e6,f7,negative).
example(e6,f8,negative).
example(e6,f9,negative).
example(e6,f10,negative).
example(e6,f11,negative).
example(e7,f1,negative).
example(e7,f2,negative).
example(e7,f3,negative).
example(e7,f4,negative).
example(e7,f5,negative).
example(e7,f6,positive).
example(e7,f7,negative).
example(e7,f8,positive).
example(e7,f9,negative).
example(e7,f10,negative).
example(e7,f11,positive).
example(e8,f1,negative).
example(e8,f2,negative).
example(e8,f3,negative).
example(e8,f4,negative).
example(e8,f5,negative).
example(e8,f6,positive).
example(e8,f7,negative).
example(e8,f8,negative).
example(e8,f9,negative).
example(e8,f10,positive).
example(e8,f11,positive).
example(e9,f1,negative).
example(e9,f2,negative).
example(e9,f3,negative).
example(e9,f4,negative).
example(e9,f5,positive).
example(e9,f6,negative).
example(e9,f7,negative).
example(e9,f8,positive).
example(e9,f9,negative).
example(e9,f10,negative).
example(e9,f11,positive).
example(e10,f1,negative).
example(e10,f2,negative).
example(e10,f3,negative).
example(e10,f4,negative).
example(e10,f5,positive).
example(e10,f6,negative).
example(e10,f7,negative).
example(e10,f8,negative).
example(e10,f9,negative).
example(e10,f10,positive).
example(e10,f11,positive).
example(e11,f1,negative).
example(e11,f2,negative).
example(e11,f3,negative).
example(e11,f4,negative).
example(e11,f5,positive).
example(e11,f6,positive).
example(e11,f7,negative).
example(e11,f8,positive).
example(e11,f9,negative).
example(e11,f10,negative).
example(e11,f11,positive).
example(e12,f1,negative).
example(e12,f2,negative).
example(e12,f3,negative).
example(e12,f4,negative).
example(e12,f5,positive).
example(e12,f6,positive).
example(e12,f7,negative).
example(e12,f8,negative).
example(e12,f9,negative).
example(e12,f10,positive).
example(e12,f11,negative).
example(e13,f1,negative).
example(e13,f2,negative).
example(e13,f3,negative).
example(e13,f4,negative).
example(e13,f5,positive).
example(e13,f6,positive).
example(e13,f7,negative).
example(e13,f8,negative).
example(e13,f9,negative).
example(e13,f10,positive).
example(e13,f11,positive).
example(e14,f1,negative).
example(e14,f2,negative).
example(e14,f3,negative).
example(e14,f4,negative).
example(e14,f5,positive).
example(e14,f6,negative).
example(e14,f7,positive).
example(e14,f8,negative).
example(e14,f9,negative).
example(e14,f10,negative).
example(e14,f11,negative).
example(e15,f1,negative).
example(e15,f2,negative).
example(e15,f3,negative).
example(e15,f4,negative).
example(e15,f5,positive).
example(e15,f6,negative).
example(e15,f7,positive).
example(e15,f8,negative).
example(e15,f9,negative).
example(e15,f10,negative).
example(e15,f11,positive).
example(e16,f1,negative).
example(e16,f2,negative).
example(e16,f3,negative).
example(e16,f4,negative).
example(e16,f5,positive).
example(e16,f6,negative).
example(e16,f7,positive).
example(e16,f8,negative).
example(e16,f9,positive).
example(e16,f10,negative).
example(e16,f11,negative).
example(e17,f1,negative).
example(e17,f2,negative).
example(e17,f3,negative).
example(e17,f4,negative).
example(e17,f5,positive).
example(e17,f6,negative).
example(e17,f7,positive).
example(e17,f8,negative).
example(e17,f9,positive).
example(e17,f10,negative).
example(e17,f11,positive).
example(e18,f1,negative).
example(e18,f2,negative).
example(e18,f3,positive).
example(e18,f4,negative).
example(e18,f5,negative).
example(e18,f6,negative).
example(e18,f7,negative).
example(e18,f8,negative).
example(e18,f9,positive).
example(e18,f10,negative).
example(e18,f11,negative).
example(e19,f1,negative).
example(e19,f2,negative).
example(e19,f3,positive).
example(e19,f4,negative).
example(e19,f5,negative).
example(e19,f6,positive).
example(e19,f7,negative).
example(e19,f8,positive).
example(e19,f9,negative).
example(e19,f10,negative).
example(e19,f11,negative).
example(e20,f1,negative).
example(e20,f2,negative).
example(e20,f3,positive).
example(e20,f4,negative).
example(e20,f5,negative).
example(e20,f6,positive).
example(e20,f7,negative).
example(e20,f8,positive).
example(e20,f9,negative).
example(e20,f10,negative).
example(e20,f11,positive).
example(e21,f1,negative).
example(e21,f2,negative).
example(e21,f3,positive).
example(e21,f4,negative).
example(e21,f5,negative).
example(e21,f6,positive).
example(e21,f7,negative).
example(e21,f8,negative).
example(e21,f9,positive).
example(e21,f10,negative).
example(e21,f11,negative).
example(e22,f1,negative).
example(e22,f2,negative).
example(e22,f3,positive).
example(e22,f4,negative).
example(e22,f5,negative).
example(e22,f6,negative).
example(e22,f7,positive).
example(e22,f8,negative).
example(e22,f9,negative).
example(e22,f10,negative).
example(e22,f11,negative).
example(e23,f1,negative).
example(e23,f2,negative).
example(e23,f3,positive).
example(e23,f4,negative).
example(e23,f5,negative).
example(e23,f6,negative).
example(e23,f7,positive).
example(e23,f8,negative).
example(e23,f9,negative).
example(e23,f10,negative).
example(e23,f11,positive).
example(e24,f1,negative).
example(e24,f2,negative).
example(e24,f3,positive).
example(e24,f4,negative).
example(e24,f5,negative).
example(e24,f6,negative).
example(e24,f7,positive).
example(e24,f8,positive).
example(e24,f9,negative).
example(e24,f10,negative).
example(e24,f11,negative).
example(e25,f1,negative).
example(e25,f2,negative).
example(e25,f3,positive).
example(e25,f4,negative).
example(e25,f5,negative).
example(e25,f6,negative).
example(e25,f7,positive).
example(e25,f8,positive).
example(e25,f9,negative).
example(e25,f10,negative).
example(e25,f11,positive).
example(e26,f1,negative).
example(e26,f2,negative).
example(e26,f3,positive).
example(e26,f4,negative).
example(e26,f5,negative).
example(e26,f6,negative).
example(e26,f7,positive).
example(e26,f8,negative).
example(e26,f9,positive).
example(e26,f10,negative).
example(e26,f11,positive).
example(e27,f1,negative).
example(e27,f2,negative).
example(e27,f3,positive).
example(e27,f4,negative).
example(e27,f5,negative).
example(e27,f6,negative).
example(e27,f7,positive).
example(e27,f8,negative).
example(e27,f9,negative).
example(e27,f10,positive).
example(e27,f11,negative).
example(e28,f1,negative).
example(e28,f2,negative).
example(e28,f3,positive).
example(e28,f4,negative).
example(e28,f5,positive).
example(e28,f6,negative).
example(e28,f7,negative).
example(e28,f8,negative).
example(e28,f9,positive).
example(e28,f10,negative).
example(e28,f11,negative).
example(e29,f1,negative).
example(e29,f2,negative).
example(e29,f3,positive).
example(e29,f4,negative).
example(e29,f5,positive).
example(e29,f6,negative).
example(e29,f7,negative).
example(e29,f8,negative).
example(e29,f9,negative).
example(e29,f10,positive).
example(e29,f11,positive).
example(e30,f1,negative).
example(e30,f2,negative).
example(e30,f3,positive).
example(e30,f4,negative).
example(e30,f5,positive).
example(e30,f6,positive).
example(e30,f7,negative).
example(e30,f8,negative).
example(e30,f9,negative).
example(e30,f10,negative).
example(e30,f11,negative).
example(e31,f1,negative).
example(e31,f2,negative).
example(e31,f3,positive).
example(e31,f4,negative).
example(e31,f5,positive).
example(e31,f6,positive).
example(e31,f7,negative).
example(e31,f8,positive).
example(e31,f9,negative).
example(e31,f10,negative).
example(e31,f11,negative).
example(e32,f1,negative).
example(e32,f2,negative).
example(e32,f3,positive).
example(e32,f4,negative).
example(e32,f5,positive).
example(e32,f6,positive).
example(e32,f7,negative).
example(e32,f8,positive).
example(e32,f9,negative).
example(e32,f10,negative).
example(e32,f11,positive).
example(e33,f1,negative).
example(e33,f2,negative).
example(e33,f3,positive).
example(e33,f4,negative).
example(e33,f5,positive).
example(e33,f6,negative).
example(e33,f7,positive).
example(e33,f8,negative).
example(e33,f9,negative).
example(e33,f10,negative).
example(e33,f11,negative).
example(e34,f1,negative).
example(e34,f2,negative).
example(e34,f3,positive).
example(e34,f4,negative).
example(e34,f5,positive).
example(e34,f6,negative).
example(e34,f7,positive).
example(e34,f8,positive).
example(e34,f9,negative).
example(e34,f10,negative).
example(e34,f11,negative).
example(e35,f1,negative).
example(e35,f2,negative).
example(e35,f3,positive).
example(e35,f4,negative).
example(e35,f5,positive).
example(e35,f6,negative).
example(e35,f7,positive).
example(e35,f8,positive).
example(e35,f9,negative).
example(e35,f10,negative).
example(e35,f11,positive).
example(e36,f1,negative).
example(e36,f2,negative).
example(e36,f3,negative).
example(e36,f4,positive).
example(e36,f5,negative).
example(e36,f6,negative).
example(e36,f7,negative).
example(e36,f8,positive).
example(e36,f9,negative).
example(e36,f10,negative).
example(e36,f11,negative).
example(e37,f1,negative).
example(e37,f2,negative).
example(e37,f3,negative).
example(e37,f4,positive).
example(e37,f5,negative).
example(e37,f6,negative).
example(e37,f7,negative).
example(e37,f8,negative).
example(e37,f9,negative).
example(e37,f10,positive).
example(e37,f11,negative).
example(e38,f1,negative).
example(e38,f2,negative).
example(e38,f3,negative).
example(e38,f4,positive).
example(e38,f5,negative).
example(e38,f6,positive).
example(e38,f7,negative).
example(e38,f8,negative).
example(e38,f9,positive).
example(e38,f10,negative).
example(e38,f11,positive).
example(e39,f1,negative).
example(e39,f2,negative).
example(e39,f3,negative).
example(e39,f4,positive).
example(e39,f5,negative).
example(e39,f6,positive).
example(e39,f7,negative).
example(e39,f8,negative).
example(e39,f9,negative).
example(e39,f10,positive).
example(e39,f11,negative).
example(e40,f1,negative).
example(e40,f2,negative).
example(e40,f3,negative).
example(e40,f4,positive).
example(e40,f5,negative).
example(e40,f6,negative).
example(e40,f7,positive).
example(e40,f8,negative).
example(e40,f9,negative).
example(e40,f10,negative).
example(e40,f11,negative).
example(e41,f1,negative).
example(e41,f2,negative).
example(e41,f3,negative).
example(e41,f4,positive).
example(e41,f5,negative).
example(e41,f6,negative).
example(e41,f7,positive).
example(e41,f8,negative).
example(e41,f9,positive).
example(e41,f10,negative).
example(e41,f11,negative).
example(e42,f1,negative).
example(e42,f2,negative).
example(e42,f3,negative).
example(e42,f4,positive).
example(e42,f5,positive).
example(e42,f6,negative).
example(e42,f7,negative).
example(e42,f8,negative).
example(e42,f9,negative).
example(e42,f10,negative).
example(e42,f11,negative).
example(e43,f1,negative).
example(e43,f2,negative).
example(e43,f3,negative).
example(e43,f4,positive).
example(e43,f5,positive).
example(e43,f6,negative).
example(e43,f7,negative).
example(e43,f8,negative).
example(e43,f9,negative).
example(e43,f10,negative).
example(e43,f11,positive).
example(e44,f1,negative).
example(e44,f2,negative).
example(e44,f3,negative).
example(e44,f4,positive).
example(e44,f5,positive).
example(e44,f6,negative).
example(e44,f7,negative).
example(e44,f8,positive).
example(e44,f9,negative).
example(e44,f10,negative).
example(e44,f11,negative).
example(e45,f1,negative).
example(e45,f2,negative).
example(e45,f3,negative).
example(e45,f4,positive).
example(e45,f5,positive).
example(e45,f6,negative).
example(e45,f7,negative).
example(e45,f8,negative).
example(e45,f9,negative).
example(e45,f10,positive).
example(e45,f11,positive).
example(e46,f1,negative).
example(e46,f2,negative).
example(e46,f3,negative).
example(e46,f4,positive).
example(e46,f5,positive).
example(e46,f6,positive).
example(e46,f7,negative).
example(e46,f8,negative).
example(e46,f9,positive).
example(e46,f10,negative).
example(e46,f11,positive).
example(e47,f1,negative).
example(e47,f2,negative).
example(e47,f3,negative).
example(e47,f4,positive).
example(e47,f5,positive).
example(e47,f6,positive).
example(e47,f7,negative).
example(e47,f8,negative).
example(e47,f9,negative).
example(e47,f10,positive).
example(e47,f11,positive).
example(e48,f1,negative).
example(e48,f2,negative).
example(e48,f3,negative).
example(e48,f4,positive).
example(e48,f5,positive).
example(e48,f6,negative).
example(e48,f7,positive).
example(e48,f8,negative).
example(e48,f9,negative).
example(e48,f10,positive).
example(e48,f11,negative).
example(e49,f1,positive).
example(e49,f2,negative).
example(e49,f3,negative).
example(e49,f4,negative).
example(e49,f5,negative).
example(e49,f6,negative).
example(e49,f7,negative).
example(e49,f8,negative).
example(e49,f9,negative).
example(e49,f10,negative).
example(e49,f11,negative).
example(e50,f1,positive).
example(e50,f2,negative).
example(e50,f3,negative).
example(e50,f4,negative).
example(e50,f5,negative).
example(e50,f6,negative).
example(e50,f7,negative).
example(e50,f8,negative).
example(e50,f9,negative).
example(e50,f10,negative).
example(e50,f11,positive).
example(e51,f1,positive).
example(e51,f2,negative).
example(e51,f3,negative).
example(e51,f4,negative).
example(e51,f5,negative).
example(e51,f6,negative).
example(e51,f7,negative).
example(e51,f8,negative).
example(e51,f9,negative).
example(e51,f10,positive).
example(e51,f11,negative).
example(e52,f1,positive).
example(e52,f2,negative).
example(e52,f3,negative).
example(e52,f4,negative).
example(e52,f5,negative).
example(e52,f6,negative).
example(e52,f7,negative).
example(e52,f8,negative).
example(e52,f9,negative).
example(e52,f10,positive).
example(e52,f11,positive).
example(e53,f1,positive).
example(e53,f2,negative).
example(e53,f3,negative).
example(e53,f4,negative).
example(e53,f5,negative).
example(e53,f6,positive).
example(e53,f7,negative).
example(e53,f8,negative).
example(e53,f9,negative).
example(e53,f10,negative).
example(e53,f11,negative).
example(e54,f1,positive).
example(e54,f2,negative).
example(e54,f3,negative).
example(e54,f4,negative).
example(e54,f5,negative).
example(e54,f6,positive).
example(e54,f7,negative).
example(e54,f8,negative).
example(e54,f9,negative).
example(e54,f10,negative).
example(e54,f11,positive).
example(e55,f1,positive).
example(e55,f2,negative).
example(e55,f3,negative).
example(e55,f4,negative).
example(e55,f5,negative).
example(e55,f6,negative).
example(e55,f7,positive).
example(e55,f8,positive).
example(e55,f9,negative).
example(e55,f10,negative).
example(e55,f11,positive).
example(e56,f1,positive).
example(e56,f2,negative).
example(e56,f3,negative).
example(e56,f4,negative).
example(e56,f5,negative).
example(e56,f6,negative).
example(e56,f7,positive).
example(e56,f8,negative).
example(e56,f9,positive).
example(e56,f10,negative).
example(e56,f11,positive).
example(e57,f1,positive).
example(e57,f2,negative).
example(e57,f3,negative).
example(e57,f4,negative).
example(e57,f5,negative).
example(e57,f6,negative).
example(e57,f7,positive).
example(e57,f8,negative).
example(e57,f9,negative).
example(e57,f10,positive).
example(e57,f11,negative).
example(e58,f1,positive).
example(e58,f2,negative).
example(e58,f3,negative).
example(e58,f4,negative).
example(e58,f5,positive).
example(e58,f6,negative).
example(e58,f7,negative).
example(e58,f8,positive).
example(e58,f9,negative).
example(e58,f10,negative).
example(e58,f11,positive).
example(e59,f1,positive).
example(e59,f2,negative).
example(e59,f3,negative).
example(e59,f4,negative).
example(e59,f5,positive).
example(e59,f6,positive).
example(e59,f7,negative).
example(e59,f8,negative).
example(e59,f9,negative).
example(e59,f10,positive).
example(e59,f11,negative).
example(e60,f1,positive).
example(e60,f2,negative).
example(e60,f3,negative).
example(e60,f4,negative).
example(e60,f5,positive).
example(e60,f6,negative).
example(e60,f7,positive).
example(e60,f8,negative).
example(e60,f9,negative).
example(e60,f10,negative).
example(e60,f11,positive).
example(e61,f1,positive).
example(e61,f2,negative).
example(e61,f3,positive).
example(e61,f4,negative).
example(e61,f5,negative).
example(e61,f6,negative).
example(e61,f7,negative).
example(e61,f8,negative).
example(e61,f9,positive).
example(e61,f10,negative).
example(e61,f11,positive).
example(e62,f1,positive).
example(e62,f2,negative).
example(e62,f3,positive).
example(e62,f4,negative).
example(e62,f5,negative).
example(e62,f6,negative).
example(e62,f7,negative).
example(e62,f8,negative).
example(e62,f9,negative).
example(e62,f10,positive).
example(e62,f11,positive).
example(e63,f1,positive).
example(e63,f2,negative).
example(e63,f3,positive).
example(e63,f4,negative).
example(e63,f5,negative).
example(e63,f6,positive).
example(e63,f7,negative).
example(e63,f8,negative).
example(e63,f9,negative).
example(e63,f10,negative).
example(e63,f11,positive).
example(e64,f1,positive).
example(e64,f2,negative).
example(e64,f3,positive).
example(e64,f4,negative).
example(e64,f5,negative).
example(e64,f6,positive).
example(e64,f7,negative).
example(e64,f8,positive).
example(e64,f9,negative).
example(e64,f10,negative).
example(e64,f11,negative).
example(e65,f1,positive).
example(e65,f2,negative).
example(e65,f3,positive).
example(e65,f4,negative).
example(e65,f5,negative).
example(e65,f6,negative).
example(e65,f7,positive).
example(e65,f8,negative).
example(e65,f9,negative).
example(e65,f10,negative).
example(e65,f11,negative).
example(e66,f1,positive).
example(e66,f2,negative).
example(e66,f3,positive).
example(e66,f4,negative).
example(e66,f5,negative).
example(e66,f6,negative).
example(e66,f7,positive).
example(e66,f8,positive).
example(e66,f9,negative).
example(e66,f10,negative).
example(e66,f11,positive).
example(e67,f1,positive).
example(e67,f2,negative).
example(e67,f3,positive).
example(e67,f4,negative).
example(e67,f5,negative).
example(e67,f6,negative).
example(e67,f7,positive).
example(e67,f8,negative).
example(e67,f9,positive).
example(e67,f10,negative).
example(e67,f11,negative).
example(e68,f1,positive).
example(e68,f2,negative).
example(e68,f3,positive).
example(e68,f4,negative).
example(e68,f5,negative).
example(e68,f6,negative).
example(e68,f7,positive).
example(e68,f8,negative).
example(e68,f9,positive).
example(e68,f10,negative).
example(e68,f11,positive).
example(e69,f1,positive).
example(e69,f2,negative).
example(e69,f3,positive).
example(e69,f4,negative).
example(e69,f5,negative).
example(e69,f6,negative).
example(e69,f7,positive).
example(e69,f8,negative).
example(e69,f9,negative).
example(e69,f10,positive).
example(e69,f11,positive).
example(e70,f1,positive).
example(e70,f2,negative).
example(e70,f3,positive).
example(e70,f4,negative).
example(e70,f5,positive).
example(e70,f6,negative).
example(e70,f7,negative).
example(e70,f8,positive).
example(e70,f9,negative).
example(e70,f10,negative).
example(e70,f11,positive).
example(e71,f1,positive).
example(e71,f2,negative).
example(e71,f3,positive).
example(e71,f4,negative).
example(e71,f5,positive).
example(e71,f6,positive).
example(e71,f7,negative).
example(e71,f8,negative).
example(e71,f9,negative).
example(e71,f10,negative).
example(e71,f11,positive).
example(e72,f1,positive).
example(e72,f2,negative).
example(e72,f3,positive).
example(e72,f4,negative).
example(e72,f5,positive).
example(e72,f6,positive).
example(e72,f7,negative).
example(e72,f8,negative).
example(e72,f9,positive).
example(e72,f10,negative).
example(e72,f11,negative).
example(e73,f1,positive).
example(e73,f2,negative).
example(e73,f3,positive).
example(e73,f4,negative).
example(e73,f5,positive).
example(e73,f6,positive).
example(e73,f7,negative).
example(e73,f8,negative).
example(e73,f9,positive).
example(e73,f10,negative).
example(e73,f11,positive).
example(e74,f1,positive).
example(e74,f2,negative).
example(e74,f3,positive).
example(e74,f4,negative).
example(e74,f5,positive).
example(e74,f6,negative).
example(e74,f7,positive).
example(e74,f8,negative).
example(e74,f9,negative).
example(e74,f10,positive).
example(e74,f11,negative).
example(e75,f1,positive).
example(e75,f2,negative).
example(e75,f3,negative).
example(e75,f4,positive).
example(e75,f5,negative).
example(e75,f6,negative).
example(e75,f7,negative).
example(e75,f8,negative).
example(e75,f9,positive).
example(e75,f10,negative).
example(e75,f11,negative).
example(e76,f1,positive).
example(e76,f2,negative).
example(e76,f3,negative).
example(e76,f4,positive).
example(e76,f5,negative).
example(e76,f6,positive).
example(e76,f7,negative).
example(e76,f8,negative).
example(e76,f9,negative).
example(e76,f10,negative).
example(e76,f11,negative).
example(e77,f1,positive).
example(e77,f2,negative).
example(e77,f3,negative).
example(e77,f4,positive).
example(e77,f5,negative).
example(e77,f6,positive).
example(e77,f7,negative).
example(e77,f8,positive).
example(e77,f9,negative).
example(e77,f10,negative).
example(e77,f11,negative).
example(e78,f1,positive).
example(e78,f2,negative).
example(e78,f3,negative).
example(e78,f4,positive).
example(e78,f5,negative).
example(e78,f6,positive).
example(e78,f7,negative).
example(e78,f8,positive).
example(e78,f9,negative).
example(e78,f10,negative).
example(e78,f11,positive).
example(e79,f1,positive).
example(e79,f2,negative).
example(e79,f3,negative).
example(e79,f4,positive).
example(e79,f5,negative).
example(e79,f6,positive).
example(e79,f7,negative).
example(e79,f8,negative).
example(e79,f9,positive).
example(e79,f10,negative).
example(e79,f11,positive).
example(e80,f1,positive).
example(e80,f2,negative).
example(e80,f3,negative).
example(e80,f4,positive).
example(e80,f5,negative).
example(e80,f6,negative).
example(e80,f7,positive).
example(e80,f8,negative).
example(e80,f9,positive).
example(e80,f10,negative).
example(e80,f11,negative).
example(e81,f1,positive).
example(e81,f2,negative).
example(e81,f3,negative).
example(e81,f4,positive).
example(e81,f5,positive).
example(e81,f6,negative).
example(e81,f7,negative).
example(e81,f8,negative).
example(e81,f9,negative).
example(e81,f10,negative).
example(e81,f11,positive).
example(e82,f1,positive).
example(e82,f2,negative).
example(e82,f3,negative).
example(e82,f4,positive).
example(e82,f5,positive).
example(e82,f6,negative).
example(e82,f7,negative).
example(e82,f8,positive).
example(e82,f9,negative).
example(e82,f10,negative).
example(e82,f11,positive).
example(e83,f1,positive).
example(e83,f2,negative).
example(e83,f3,negative).
example(e83,f4,positive).
example(e83,f5,positive).
example(e83,f6,negative).
example(e83,f7,negative).
example(e83,f8,negative).
example(e83,f9,negative).
example(e83,f10,positive).
example(e83,f11,negative).
example(e84,f1,positive).
example(e84,f2,negative).
example(e84,f3,negative).
example(e84,f4,positive).
example(e84,f5,positive).
example(e84,f6,positive).
example(e84,f7,negative).
example(e84,f8,negative).
example(e84,f9,positive).
example(e84,f10,negative).
example(e84,f11,negative).
example(e85,f1,positive).
example(e85,f2,negative).
example(e85,f3,negative).
example(e85,f4,positive).
example(e85,f5,positive).
example(e85,f6,positive).
example(e85,f7,negative).
example(e85,f8,negative).
example(e85,f9,negative).
example(e85,f10,positive).
example(e85,f11,positive).
example(e86,f1,positive).
example(e86,f2,negative).
example(e86,f3,negative).
example(e86,f4,positive).
example(e86,f5,positive).
example(e86,f6,negative).
example(e86,f7,positive).
example(e86,f8,negative).
example(e86,f9,negative).
example(e86,f10,negative).
example(e86,f11,negative).
example(e87,f1,positive).
example(e87,f2,negative).
example(e87,f3,negative).
example(e87,f4,positive).
example(e87,f5,positive).
example(e87,f6,negative).
example(e87,f7,positive).
example(e87,f8,positive).
example(e87,f9,negative).
example(e87,f10,negative).
example(e87,f11,negative).
example(e88,f1,positive).
example(e88,f2,negative).
example(e88,f3,negative).
example(e88,f4,positive).
example(e88,f5,positive).
example(e88,f6,negative).
example(e88,f7,positive).
example(e88,f8,negative).
example(e88,f9,negative).
example(e88,f10,positive).
example(e88,f11,positive).
example(e89,f1,negative).
example(e89,f2,positive).
example(e89,f3,negative).
example(e89,f4,negative).
example(e89,f5,negative).
example(e89,f6,negative).
example(e89,f7,negative).
example(e89,f8,negative).
example(e89,f9,negative).
example(e89,f10,negative).
example(e89,f11,negative).
example(e90,f1,negative).
example(e90,f2,positive).
example(e90,f3,negative).
example(e90,f4,negative).
example(e90,f5,negative).
example(e90,f6,negative).
example(e90,f7,negative).
example(e90,f8,positive).
example(e90,f9,negative).
example(e90,f10,negative).
example(e90,f11,negative).
example(e91,f1,negative).
example(e91,f2,positive).
example(e91,f3,negative).
example(e91,f4,negative).
example(e91,f5,negative).
example(e91,f6,negative).
example(e91,f7,negative).
example(e91,f8,negative).
example(e91,f9,positive).
example(e91,f10,negative).
example(e91,f11,negative).
example(e92,f1,negative).
example(e92,f2,positive).
example(e92,f3,negative).
example(e92,f4,negative).
example(e92,f5,negative).
example(e92,f6,positive).
example(e92,f7,negative).
example(e92,f8,negative).
example(e92,f9,negative).
example(e92,f10,positive).
example(e92,f11,positive).
example(e93,f1,negative).
example(e93,f2,positive).
example(e93,f3,negative).
example(e93,f4,negative).
example(e93,f5,negative).
example(e93,f6,negative).
example(e93,f7,positive).
example(e93,f8,negative).
example(e93,f9,negative).
example(e93,f10,negative).
example(e93,f11,positive).
example(e94,f1,negative).
example(e94,f2,positive).
example(e94,f3,negative).
example(e94,f4,negative).
example(e94,f5,negative).
example(e94,f6,negative).
example(e94,f7,positive).
example(e94,f8,negative).
example(e94,f9,negative).
example(e94,f10,positive).
example(e94,f11,positive).
example(e95,f1,negative).
example(e95,f2,positive).
example(e95,f3,negative).
example(e95,f4,negative).
example(e95,f5,positive).
example(e95,f6,negative).
example(e95,f7,negative).
example(e95,f8,positive).
example(e95,f9,negative).
example(e95,f10,negative).
example(e95,f11,negative).
example(e96,f1,negative).
example(e96,f2,positive).
example(e96,f3,negative).
example(e96,f4,negative).
example(e96,f5,positive).
example(e96,f6,positive).
example(e96,f7,negative).
example(e96,f8,negative).
example(e96,f9,positive).
example(e96,f10,negative).
example(e96,f11,positive).
example(e97,f1,negative).
example(e97,f2,positive).
example(e97,f3,negative).
example(e97,f4,negative).
example(e97,f5,positive).
example(e97,f6,positive).
example(e97,f7,negative).
example(e97,f8,negative).
example(e97,f9,negative).
example(e97,f10,positive).
example(e97,f11,positive).
example(e98,f1,negative).
example(e98,f2,positive).
example(e98,f3,negative).
example(e98,f4,negative).
example(e98,f5,positive).
example(e98,f6,negative).
example(e98,f7,positive).
example(e98,f8,negative).
example(e98,f9,negative).
example(e98,f10,negative).
example(e98,f11,negative).
example(e99,f1,negative).
example(e99,f2,positive).
example(e99,f3,positive).
example(e99,f4,negative).
example(e99,f5,negative).
example(e99,f6,negative).
example(e99,f7,negative).
example(e99,f8,positive).
example(e99,f9,negative).
example(e99,f10,negative).
example(e99,f11,positive).
example(e100,f1,negative).
example(e100,f2,positive).
example(e100,f3,positive).
example(e100,f4,negative).
example(e100,f5,negative).
example(e100,f6,negative).
example(e100,f7,negative).
example(e100,f8,negative).
example(e100,f9,negative).
example(e100,f10,positive).
example(e100,f11,negative).
example(e101,f1,negative).
example(e101,f2,positive).
example(e101,f3,positive).
example(e101,f4,negative).
example(e101,f5,negative).
example(e101,f6,positive).
example(e101,f7,negative).
example(e101,f8,negative).
example(e101,f9,positive).
example(e101,f10,negative).
example(e101,f11,negative).
example(e102,f1,negative).
example(e102,f2,positive).
example(e102,f3,positive).
example(e102,f4,negative).
example(e102,f5,negative).
example(e102,f6,negative).
example(e102,f7,positive).
example(e102,f8,negative).
example(e102,f9,negative).
example(e102,f10,negative).
example(e102,f11,positive).
example(e103,f1,negative).
example(e103,f2,positive).
example(e103,f3,positive).
example(e103,f4,negative).
example(e103,f5,positive).
example(e103,f6,negative).
example(e103,f7,negative).
example(e103,f8,positive).
example(e103,f9,negative).
example(e103,f10,negative).
example(e103,f11,positive).
example(e104,f1,negative).
example(e104,f2,positive).
example(e104,f3,positive).
example(e104,f4,negative).
example(e104,f5,positive).
example(e104,f6,negative).
example(e104,f7,negative).
example(e104,f8,negative).
example(e104,f9,positive).
example(e104,f10,negative).
example(e104,f11,positive).
example(e105,f1,negative).
example(e105,f2,positive).
example(e105,f3,positive).
example(e105,f4,negative).
example(e105,f5,positive).
example(e105,f6,positive).
example(e105,f7,negative).
example(e105,f8,negative).
example(e105,f9,negative).
example(e105,f10,negative).
example(e105,f11,positive).
example(e106,f1,negative).
example(e106,f2,positive).
example(e106,f3,positive).
example(e106,f4,negative).
example(e106,f5,positive).
example(e106,f6,negative).
example(e106,f7,positive).
example(e106,f8,negative).
example(e106,f9,negative).
example(e106,f10,negative).
example(e106,f11,negative).
example(e107,f1,negative).
example(e107,f2,positive).
example(e107,f3,positive).
example(e107,f4,negative).
example(e107,f5,positive).
example(e107,f6,negative).
example(e107,f7,positive).
example(e107,f8,negative).
example(e107,f9,positive).
example(e107,f10,negative).
example(e107,f11,positive).
example(e108,f1,negative).
example(e108,f2,positive).
example(e108,f3,positive).
example(e108,f4,negative).
example(e108,f5,positive).
example(e108,f6,negative).
example(e108,f7,positive).
example(e108,f8,negative).
example(e108,f9,negative).
example(e108,f10,positive).
example(e108,f11,negative).
example(e109,f1,negative).
example(e109,f2,positive).
example(e109,f3,negative).
example(e109,f4,positive).
example(e109,f5,negative).
example(e109,f6,negative).
example(e109,f7,negative).
example(e109,f8,negative).
example(e109,f9,positive).
example(e109,f10,negative).
example(e109,f11,positive).
example(e110,f1,negative).
example(e110,f2,positive).
example(e110,f3,negative).
example(e110,f4,positive).
example(e110,f5,negative).
example(e110,f6,negative).
example(e110,f7,negative).
example(e110,f8,negative).
example(e110,f9,negative).
example(e110,f10,positive).
example(e110,f11,negative).
example(e111,f1,negative).
example(e111,f2,positive).
example(e111,f3,negative).
example(e111,f4,positive).
example(e111,f5,negative).
example(e111,f6,positive).
example(e111,f7,negative).
example(e111,f8,negative).
example(e111,f9,negative).
example(e111,f10,positive).
example(e111,f11,positive).
example(e112,f1,negative).
example(e112,f2,positive).
example(e112,f3,negative).
example(e112,f4,positive).
example(e112,f5,negative).
example(e112,f6,negative).
example(e112,f7,positive).
example(e112,f8,negative).
example(e112,f9,negative).
example(e112,f10,negative).
example(e112,f11,negative).
example(e113,f1,negative).
example(e113,f2,positive).
example(e113,f3,negative).
example(e113,f4,positive).
example(e113,f5,negative).
example(e113,f6,negative).
example(e113,f7,positive).
example(e113,f8,positive).
example(e113,f9,negative).
example(e113,f10,negative).
example(e113,f11,negative).
example(e114,f1,negative).
example(e114,f2,positive).
example(e114,f3,negative).
example(e114,f4,positive).
example(e114,f5,negative).
example(e114,f6,negative).
example(e114,f7,positive).
example(e114,f8,positive).
example(e114,f9,negative).
example(e114,f10,negative).
example(e114,f11,positive).
example(e115,f1,negative).
example(e115,f2,positive).
example(e115,f3,negative).
example(e115,f4,positive).
example(e115,f5,negative).
example(e115,f6,negative).
example(e115,f7,positive).
example(e115,f8,negative).
example(e115,f9,negative).
example(e115,f10,positive).
example(e115,f11,negative).
example(e116,f1,negative).
example(e116,f2,positive).
example(e116,f3,negative).
example(e116,f4,positive).
example(e116,f5,positive).
example(e116,f6,negative).
example(e116,f7,negative).
example(e116,f8,negative).
example(e116,f9,negative).
example(e116,f10,negative).
example(e116,f11,negative).
example(e117,f1,negative).
example(e117,f2,positive).
example(e117,f3,negative).
example(e117,f4,positive).
example(e117,f5,positive).
example(e117,f6,negative).
example(e117,f7,negative).
example(e117,f8,negative).
example(e117,f9,negative).
example(e117,f10,negative).
example(e117,f11,positive).
example(e118,f1,negative).
example(e118,f2,positive).
example(e118,f3,negative).
example(e118,f4,positive).
example(e118,f5,positive).
example(e118,f6,positive).
example(e118,f7,negative).
example(e118,f8,positive).
example(e118,f9,negative).
example(e118,f10,negative).
example(e118,f11,positive).
example(e119,f1,negative).
example(e119,f2,positive).
example(e119,f3,negative).
example(e119,f4,positive).
example(e119,f5,positive).
example(e119,f6,positive).
example(e119,f7,negative).
example(e119,f8,negative).
example(e119,f9,positive).
example(e119,f10,negative).
example(e119,f11,positive).
example(e120,f1,negative).
example(e120,f2,positive).
example(e120,f3,negative).
example(e120,f4,positive).
example(e120,f5,positive).
example(e120,f6,negative).
example(e120,f7,positive).
example(e120,f8,negative).
example(e120,f9,negative).
example(e120,f10,negative).
example(e120,f11,negative).
example(e121,f1,negative).
example(e121,f2,positive).
example(e121,f3,negative).
example(e121,f4,positive).
example(e121,f5,positive).
example(e121,f6,negative).
example(e121,f7,positive).
example(e121,f8,negative).
example(e121,f9,positive).
example(e121,f10,negative).
example(e121,f11,positive).
example(e122,f1,negative).
example(e122,f2,positive).
example(e122,f3,negative).
example(e122,f4,positive).
example(e122,f5,positive).
example(e122,f6,negative).
example(e122,f7,positive).
example(e122,f8,negative).
example(e122,f9,negative).
example(e122,f10,positive).
example(e122,f11,positive).
example(e123,f1,negative).
example(e123,f2,negative).
example(e123,f3,negative).
example(e123,f4,negative).
example(e123,f5,negative).
example(e123,f6,negative).
example(e123,f7,negative).
example(e123,f8,negative).
example(e123,f9,negative).
example(e123,f10,negative).
example(e123,f11,negative).
example(e124,f1,negative).
example(e124,f2,negative).
example(e124,f3,negative).
example(e124,f4,negative).
example(e124,f5,negative).
example(e124,f6,negative).
example(e124,f7,negative).
example(e124,f8,negative).
example(e124,f9,negative).
example(e124,f10,negative).
example(e124,f11,positive).
example(e125,f1,negative).
example(e125,f2,negative).
example(e125,f3,negative).
example(e125,f4,negative).
example(e125,f5,negative).
example(e125,f6,negative).
example(e125,f7,negative).
example(e125,f8,positive).
example(e125,f9,negative).
example(e125,f10,negative).
example(e125,f11,negative).
example(e126,f1,negative).
example(e126,f2,negative).
example(e126,f3,negative).
example(e126,f4,negative).
example(e126,f5,negative).
example(e126,f6,negative).
example(e126,f7,negative).
example(e126,f8,positive).
example(e126,f9,negative).
example(e126,f10,negative).
example(e126,f11,positive).
example(e127,f1,negative).
example(e127,f2,negative).
example(e127,f3,negative).
example(e127,f4,negative).
example(e127,f5,negative).
example(e127,f6,negative).
example(e127,f7,negative).
example(e127,f8,negative).
example(e127,f9,positive).
example(e127,f10,negative).
example(e127,f11,negative).
example(e128,f1,negative).
example(e128,f2,negative).
example(e128,f3,negative).
example(e128,f4,negative).
example(e128,f5,negative).
example(e128,f6,negative).
example(e128,f7,negative).
example(e128,f8,negative).
example(e128,f9,positive).
example(e128,f10,negative).
example(e128,f11,positive).
example(e129,f1,negative).
example(e129,f2,negative).
example(e129,f3,negative).
example(e129,f4,negative).
example(e129,f5,negative).
example(e129,f6,negative).
example(e129,f7,negative).
example(e129,f8,negative).
example(e129,f9,negative).
example(e129,f10,positive).
example(e129,f11,negative).
example(e130,f1,negative).
example(e130,f2,negative).
example(e130,f3,negative).
example(e130,f4,negative).
example(e130,f5,negative).
example(e130,f6,negative).
example(e130,f7,negative).
example(e130,f8,negative).
example(e130,f9,negative).
example(e130,f10,positive).
example(e130,f11,positive).
example(e131,f1,negative).
example(e131,f2,negative).
example(e131,f3,negative).
example(e131,f4,negative).
example(e131,f5,negative).
example(e131,f6,positive).
example(e131,f7,negative).
example(e131,f8,negative).
example(e131,f9,negative).
example(e131,f10,negative).
example(e131,f11,negative).
example(e132,f1,negative).
example(e132,f2,negative).
example(e132,f3,negative).
example(e132,f4,negative).
example(e132,f5,negative).
example(e132,f6,positive).
example(e132,f7,negative).
example(e132,f8,negative).
example(e132,f9,negative).
example(e132,f10,negative).
example(e132,f11,positive).
example(e133,f1,negative).
example(e133,f2,negative).
example(e133,f3,negative).
example(e133,f4,negative).
example(e133,f5,negative).
example(e133,f6,positive).
example(e133,f7,negative).
example(e133,f8,positive).
example(e133,f9,negative).
example(e133,f10,negative).
example(e133,f11,negative).
example(e134,f1,negative).
example(e134,f2,negative).
example(e134,f3,negative).
example(e134,f4,negative).
example(e134,f5,negative).
example(e134,f6,positive).
example(e134,f7,negative).
example(e134,f8,positive).
example(e134,f9,negative).
example(e134,f10,negative).
example(e134,f11,positive).
example(e135,f1,negative).
example(e135,f2,negative).
example(e135,f3,negative).
example(e135,f4,negative).
example(e135,f5,negative).
example(e135,f6,positive).
example(e135,f7,negative).
example(e135,f8,negative).
example(e135,f9,positive).
example(e135,f10,negative).
example(e135,f11,negative).
example(e136,f1,negative).
example(e136,f2,negative).
example(e136,f3,negative).
example(e136,f4,negative).
example(e136,f5,negative).
example(e136,f6,positive).
example(e136,f7,negative).
example(e136,f8,negative).
example(e136,f9,positive).
example(e136,f10,negative).
example(e136,f11,positive).
example(e137,f1,negative).
example(e137,f2,negative).
example(e137,f3,negative).
example(e137,f4,negative).
example(e137,f5,negative).
example(e137,f6,positive).
example(e137,f7,negative).
example(e137,f8,negative).
example(e137,f9,negative).
example(e137,f10,positive).
example(e137,f11,negative).
example(e138,f1,negative).
example(e138,f2,negative).
example(e138,f3,negative).
example(e138,f4,negative).
example(e138,f5,negative).
example(e138,f6,positive).
example(e138,f7,negative).
example(e138,f8,negative).
example(e138,f9,negative).
example(e138,f10,positive).
example(e138,f11,positive).
example(e139,f1,negative).
example(e139,f2,negative).
example(e139,f3,negative).
example(e139,f4,negative).
example(e139,f5,negative).
example(e139,f6,negative).
example(e139,f7,positive).
example(e139,f8,negative).
example(e139,f9,negative).
example(e139,f10,negative).
example(e139,f11,negative).
example(e140,f1,negative).
example(e140,f2,negative).
example(e140,f3,negative).
example(e140,f4,negative).
example(e140,f5,negative).
example(e140,f6,negative).
example(e140,f7,positive).
example(e140,f8,negative).
example(e140,f9,negative).
example(e140,f10,negative).
example(e140,f11,positive).
example(e141,f1,negative).
example(e141,f2,negative).
example(e141,f3,negative).
example(e141,f4,negative).
example(e141,f5,negative).
example(e141,f6,negative).
example(e141,f7,positive).
example(e141,f8,positive).
example(e141,f9,negative).
example(e141,f10,negative).
example(e141,f11,negative).
example(e142,f1,negative).
example(e142,f2,negative).
example(e142,f3,negative).
example(e142,f4,negative).
example(e142,f5,negative).
example(e142,f6,negative).
example(e142,f7,positive).
example(e142,f8,positive).
example(e142,f9,negative).
example(e142,f10,negative).
example(e142,f11,positive).
example(e143,f1,negative).
example(e143,f2,negative).
example(e143,f3,negative).
example(e143,f4,negative).
example(e143,f5,negative).
example(e143,f6,negative).
example(e143,f7,positive).
example(e143,f8,negative).
example(e143,f9,positive).
example(e143,f10,negative).
example(e143,f11,negative).
example(e144,f1,negative).
example(e144,f2,negative).
example(e144,f3,negative).
example(e144,f4,negative).
example(e144,f5,negative).
example(e144,f6,negative).
example(e144,f7,positive).
example(e144,f8,negative).
example(e144,f9,positive).
example(e144,f10,negative).
example(e144,f11,positive).
example(e145,f1,negative).
example(e145,f2,negative).
example(e145,f3,negative).
example(e145,f4,negative).
example(e145,f5,negative).
example(e145,f6,negative).
example(e145,f7,positive).
example(e145,f8,negative).
example(e145,f9,negative).
example(e145,f10,positive).
example(e145,f11,negative).
example(e146,f1,negative).
example(e146,f2,negative).
example(e146,f3,negative).
example(e146,f4,negative).
example(e146,f5,negative).
example(e146,f6,negative).
example(e146,f7,positive).
example(e146,f8,negative).
example(e146,f9,negative).
example(e146,f10,positive).
example(e146,f11,positive).
example(e147,f1,negative).
example(e147,f2,negative).
example(e147,f3,negative).
example(e147,f4,negative).
example(e147,f5,positive).
example(e147,f6,negative).
example(e147,f7,negative).
example(e147,f8,negative).
example(e147,f9,negative).
example(e147,f10,negative).
example(e147,f11,negative).
example(e148,f1,negative).
example(e148,f2,negative).
example(e148,f3,negative).
example(e148,f4,negative).
example(e148,f5,positive).
example(e148,f6,negative).
example(e148,f7,negative).
example(e148,f8,negative).
example(e148,f9,negative).
example(e148,f10,negative).
example(e148,f11,positive).
example(e149,f1,negative).
example(e149,f2,negative).
example(e149,f3,negative).
example(e149,f4,negative).
example(e149,f5,positive).
example(e149,f6,negative).
example(e149,f7,negative).
example(e149,f8,positive).
example(e149,f9,negative).
example(e149,f10,negative).
example(e149,f11,negative).
example(e150,f1,negative).
example(e150,f2,negative).
example(e150,f3,negative).
example(e150,f4,negative).
example(e150,f5,positive).
example(e150,f6,negative).
example(e150,f7,negative).
example(e150,f8,positive).
example(e150,f9,negative).
example(e150,f10,negative).
example(e150,f11,positive).
example(e151,f1,negative).
example(e151,f2,negative).
example(e151,f3,negative).
example(e151,f4,negative).
example(e151,f5,positive).
example(e151,f6,negative).
example(e151,f7,negative).
example(e151,f8,negative).
example(e151,f9,positive).
example(e151,f10,negative).
example(e151,f11,negative).
example(e152,f1,negative).
example(e152,f2,negative).
example(e152,f3,negative).
example(e152,f4,negative).
example(e152,f5,positive).
example(e152,f6,negative).
example(e152,f7,negative).
example(e152,f8,negative).
example(e152,f9,positive).
example(e152,f10,negative).
example(e152,f11,positive).
example(e153,f1,negative).
example(e153,f2,negative).
example(e153,f3,negative).
example(e153,f4,negative).
example(e153,f5,positive).
example(e153,f6,negative).
example(e153,f7,negative).
example(e153,f8,negative).
example(e153,f9,negative).
example(e153,f10,positive).
example(e153,f11,negative).
example(e154,f1,negative).
example(e154,f2,negative).
example(e154,f3,negative).
example(e154,f4,negative).
example(e154,f5,positive).
example(e154,f6,negative).
example(e154,f7,negative).
example(e154,f8,negative).
example(e154,f9,negative).
example(e154,f10,positive).
example(e154,f11,positive).
example(e155,f1,negative).
example(e155,f2,negative).
example(e155,f3,negative).
example(e155,f4,negative).
example(e155,f5,positive).
example(e155,f6,positive).
example(e155,f7,negative).
example(e155,f8,negative).
example(e155,f9,negative).
example(e155,f10,negative).
example(e155,f11,negative).
example(e156,f1,negative).
example(e156,f2,negative).
example(e156,f3,negative).
example(e156,f4,negative).
example(e156,f5,positive).
example(e156,f6,positive).
example(e156,f7,negative).
example(e156,f8,negative).
example(e156,f9,negative).
example(e156,f10,negative).
example(e156,f11,positive).
example(e157,f1,negative).
example(e157,f2,negative).
example(e157,f3,negative).
example(e157,f4,negative).
example(e157,f5,positive).
example(e157,f6,positive).
example(e157,f7,negative).
example(e157,f8,positive).
example(e157,f9,negative).
example(e157,f10,negative).
example(e157,f11,negative).
example(e158,f1,negative).
example(e158,f2,negative).
example(e158,f3,negative).
example(e158,f4,negative).
example(e158,f5,positive).
example(e158,f6,positive).
example(e158,f7,negative).
example(e158,f8,positive).
example(e158,f9,negative).
example(e158,f10,negative).
example(e158,f11,positive).
example(e159,f1,negative).
example(e159,f2,negative).
example(e159,f3,negative).
example(e159,f4,negative).
example(e159,f5,positive).
example(e159,f6,positive).
example(e159,f7,negative).
example(e159,f8,negative).
example(e159,f9,positive).
example(e159,f10,negative).
example(e159,f11,negative).
example(e160,f1,negative).
example(e160,f2,negative).
example(e160,f3,negative).
example(e160,f4,negative).
example(e160,f5,positive).
example(e160,f6,positive).
example(e160,f7,negative).
example(e160,f8,negative).
example(e160,f9,positive).
example(e160,f10,negative).
example(e160,f11,positive).
example(e161,f1,negative).
example(e161,f2,negative).
example(e161,f3,negative).
example(e161,f4,negative).
example(e161,f5,positive).
example(e161,f6,positive).
example(e161,f7,negative).
example(e161,f8,negative).
example(e161,f9,negative).
example(e161,f10,positive).
example(e161,f11,negative).
example(e162,f1,negative).
example(e162,f2,negative).
example(e162,f3,negative).
example(e162,f4,negative).
example(e162,f5,positive).
example(e162,f6,positive).
example(e162,f7,negative).
example(e162,f8,negative).
example(e162,f9,negative).
example(e162,f10,positive).
example(e162,f11,positive).
example(e163,f1,negative).
example(e163,f2,negative).
example(e163,f3,negative).
example(e163,f4,negative).
example(e163,f5,positive).
example(e163,f6,negative).
example(e163,f7,positive).
example(e163,f8,negative).
example(e163,f9,negative).
example(e163,f10,negative).
example(e163,f11,negative).
example(e164,f1,negative).
example(e164,f2,negative).
example(e164,f3,negative).
example(e164,f4,negative).
example(e164,f5,positive).
example(e164,f6,negative).
example(e164,f7,positive).
example(e164,f8,negative).
example(e164,f9,negative).
example(e164,f10,negative).
example(e164,f11,positive).
example(e165,f1,negative).
example(e165,f2,negative).
example(e165,f3,negative).
example(e165,f4,negative).
example(e165,f5,positive).
example(e165,f6,negative).
example(e165,f7,positive).
example(e165,f8,positive).
example(e165,f9,negative).
example(e165,f10,negative).
example(e165,f11,negative).
example(e166,f1,negative).
example(e166,f2,negative).
example(e166,f3,negative).
example(e166,f4,negative).
example(e166,f5,positive).
example(e166,f6,negative).
example(e166,f7,positive).
example(e166,f8,positive).
example(e166,f9,negative).
example(e166,f10,negative).
example(e166,f11,positive).
example(e167,f1,negative).
example(e167,f2,negative).
example(e167,f3,negative).
example(e167,f4,negative).
example(e167,f5,positive).
example(e167,f6,negative).
example(e167,f7,positive).
example(e167,f8,negative).
example(e167,f9,positive).
example(e167,f10,negative).
example(e167,f11,negative).
example(e168,f1,negative).
example(e168,f2,negative).
example(e168,f3,negative).
example(e168,f4,negative).
example(e168,f5,positive).
example(e168,f6,negative).
example(e168,f7,positive).
example(e168,f8,negative).
example(e168,f9,positive).
example(e168,f10,negative).
example(e168,f11,positive).
example(e169,f1,negative).
example(e169,f2,negative).
example(e169,f3,negative).
example(e169,f4,negative).
example(e169,f5,positive).
example(e169,f6,negative).
example(e169,f7,positive).
example(e169,f8,negative).
example(e169,f9,negative).
example(e169,f10,positive).
example(e169,f11,negative).
example(e170,f1,negative).
example(e170,f2,negative).
example(e170,f3,negative).
example(e170,f4,negative).
example(e170,f5,positive).
example(e170,f6,negative).
example(e170,f7,positive).
example(e170,f8,negative).
example(e170,f9,negative).
example(e170,f10,positive).
example(e170,f11,positive).
example(e171,f1,negative).
example(e171,f2,negative).
example(e171,f3,positive).
example(e171,f4,negative).
example(e171,f5,negative).
example(e171,f6,negative).
example(e171,f7,negative).
example(e171,f8,negative).
example(e171,f9,negative).
example(e171,f10,negative).
example(e171,f11,negative).
example(e172,f1,negative).
example(e172,f2,negative).
example(e172,f3,positive).
example(e172,f4,negative).
example(e172,f5,negative).
example(e172,f6,negative).
example(e172,f7,negative).
example(e172,f8,negative).
example(e172,f9,negative).
example(e172,f10,negative).
example(e172,f11,positive).
example(e173,f1,negative).
example(e173,f2,negative).
example(e173,f3,positive).
example(e173,f4,negative).
example(e173,f5,negative).
example(e173,f6,negative).
example(e173,f7,negative).
example(e173,f8,positive).
example(e173,f9,negative).
example(e173,f10,negative).
example(e173,f11,negative).
example(e174,f1,negative).
example(e174,f2,negative).
example(e174,f3,positive).
example(e174,f4,negative).
example(e174,f5,negative).
example(e174,f6,negative).
example(e174,f7,negative).
example(e174,f8,positive).
example(e174,f9,negative).
example(e174,f10,negative).
example(e174,f11,positive).
example(e175,f1,negative).
example(e175,f2,negative).
example(e175,f3,positive).
example(e175,f4,negative).
example(e175,f5,negative).
example(e175,f6,negative).
example(e175,f7,negative).
example(e175,f8,negative).
example(e175,f9,positive).
example(e175,f10,negative).
example(e175,f11,negative).
example(e176,f1,negative).
example(e176,f2,negative).
example(e176,f3,positive).
example(e176,f4,negative).
example(e176,f5,negative).
example(e176,f6,negative).
example(e176,f7,negative).
example(e176,f8,negative).
example(e176,f9,positive).
example(e176,f10,negative).
example(e176,f11,positive).
example(e177,f1,negative).
example(e177,f2,negative).
example(e177,f3,positive).
example(e177,f4,negative).
example(e177,f5,negative).
example(e177,f6,negative).
example(e177,f7,negative).
example(e177,f8,negative).
example(e177,f9,negative).
example(e177,f10,positive).
example(e177,f11,negative).
example(e178,f1,negative).
example(e178,f2,negative).
example(e178,f3,positive).
example(e178,f4,negative).
example(e178,f5,negative).
example(e178,f6,negative).
example(e178,f7,negative).
example(e178,f8,negative).
example(e178,f9,negative).
example(e178,f10,positive).
example(e178,f11,positive).
example(e179,f1,negative).
example(e179,f2,negative).
example(e179,f3,positive).
example(e179,f4,negative).
example(e179,f5,negative).
example(e179,f6,positive).
example(e179,f7,negative).
example(e179,f8,negative).
example(e179,f9,negative).
example(e179,f10,negative).
example(e179,f11,negative).
example(e180,f1,negative).
example(e180,f2,negative).
example(e180,f3,positive).
example(e180,f4,negative).
example(e180,f5,negative).
example(e180,f6,positive).
example(e180,f7,negative).
example(e180,f8,negative).
example(e180,f9,negative).
example(e180,f10,negative).
example(e180,f11,positive).
example(e181,f1,negative).
example(e181,f2,negative).
example(e181,f3,positive).
example(e181,f4,negative).
example(e181,f5,negative).
example(e181,f6,positive).
example(e181,f7,negative).
example(e181,f8,positive).
example(e181,f9,negative).
example(e181,f10,negative).
example(e181,f11,negative).
example(e182,f1,negative).
example(e182,f2,negative).
example(e182,f3,positive).
example(e182,f4,negative).
example(e182,f5,negative).
example(e182,f6,positive).
example(e182,f7,negative).
example(e182,f8,positive).
example(e182,f9,negative).
example(e182,f10,negative).
example(e182,f11,positive).
example(e183,f1,negative).
example(e183,f2,negative).
example(e183,f3,positive).
example(e183,f4,negative).
example(e183,f5,negative).
example(e183,f6,positive).
example(e183,f7,negative).
example(e183,f8,negative).
example(e183,f9,positive).
example(e183,f10,negative).
example(e183,f11,negative).
example(e184,f1,negative).
example(e184,f2,negative).
example(e184,f3,positive).
example(e184,f4,negative).
example(e184,f5,negative).
example(e184,f6,positive).
example(e184,f7,negative).
example(e184,f8,negative).
example(e184,f9,positive).
example(e184,f10,negative).
example(e184,f11,positive).
example(e185,f1,negative).
example(e185,f2,negative).
example(e185,f3,positive).
example(e185,f4,negative).
example(e185,f5,negative).
example(e185,f6,positive).
example(e185,f7,negative).
example(e185,f8,negative).
example(e185,f9,negative).
example(e185,f10,positive).
example(e185,f11,negative).
example(e186,f1,negative).
example(e186,f2,negative).
example(e186,f3,positive).
example(e186,f4,negative).
example(e186,f5,negative).
example(e186,f6,positive).
example(e186,f7,negative).
example(e186,f8,negative).
example(e186,f9,negative).
example(e186,f10,positive).
example(e186,f11,positive).
example(e187,f1,negative).
example(e187,f2,negative).
example(e187,f3,positive).
example(e187,f4,negative).
example(e187,f5,negative).
example(e187,f6,negative).
example(e187,f7,positive).
example(e187,f8,negative).
example(e187,f9,negative).
example(e187,f10,negative).
example(e187,f11,negative).
example(e188,f1,negative).
example(e188,f2,negative).
example(e188,f3,positive).
example(e188,f4,negative).
example(e188,f5,negative).
example(e188,f6,negative).
example(e188,f7,positive).
example(e188,f8,negative).
example(e188,f9,negative).
example(e188,f10,negative).
example(e188,f11,positive).
example(e189,f1,negative).
example(e189,f2,negative).
example(e189,f3,positive).
example(e189,f4,negative).
example(e189,f5,negative).
example(e189,f6,negative).
example(e189,f7,positive).
example(e189,f8,positive).
example(e189,f9,negative).
example(e189,f10,negative).
example(e189,f11,negative).
example(e190,f1,negative).
example(e190,f2,negative).
example(e190,f3,positive).
example(e190,f4,negative).
example(e190,f5,negative).
example(e190,f6,negative).
example(e190,f7,positive).
example(e190,f8,positive).
example(e190,f9,negative).
example(e190,f10,negative).
example(e190,f11,positive).
example(e191,f1,negative).
example(e191,f2,negative).
example(e191,f3,positive).
example(e191,f4,negative).
example(e191,f5,negative).
example(e191,f6,negative).
example(e191,f7,positive).
example(e191,f8,negative).
example(e191,f9,positive).
example(e191,f10,negative).
example(e191,f11,negative).
example(e192,f1,negative).
example(e192,f2,negative).
example(e192,f3,positive).
example(e192,f4,negative).
example(e192,f5,negative).
example(e192,f6,negative).
example(e192,f7,positive).
example(e192,f8,negative).
example(e192,f9,positive).
example(e192,f10,negative).
example(e192,f11,positive).
example(e193,f1,negative).
example(e193,f2,negative).
example(e193,f3,positive).
example(e193,f4,negative).
example(e193,f5,negative).
example(e193,f6,negative).
example(e193,f7,positive).
example(e193,f8,negative).
example(e193,f9,negative).
example(e193,f10,positive).
example(e193,f11,negative).
example(e194,f1,negative).
example(e194,f2,negative).
example(e194,f3,positive).
example(e194,f4,negative).
example(e194,f5,negative).
example(e194,f6,negative).
example(e194,f7,positive).
example(e194,f8,negative).
example(e194,f9,negative).
example(e194,f10,positive).
example(e194,f11,positive).
example(e195,f1,negative).
example(e195,f2,negative).
example(e195,f3,positive).
example(e195,f4,negative).
example(e195,f5,positive).
example(e195,f6,negative).
example(e195,f7,negative).
example(e195,f8,negative).
example(e195,f9,negative).
example(e195,f10,negative).
example(e195,f11,negative).
example(e196,f1,negative).
example(e196,f2,negative).
example(e196,f3,positive).
example(e196,f4,negative).
example(e196,f5,positive).
example(e196,f6,negative).
example(e196,f7,negative).
example(e196,f8,negative).
example(e196,f9,negative).
example(e196,f10,negative).
example(e196,f11,positive).
example(e197,f1,negative).
example(e197,f2,negative).
example(e197,f3,positive).
example(e197,f4,negative).
example(e197,f5,positive).
example(e197,f6,negative).
example(e197,f7,negative).
example(e197,f8,positive).
example(e197,f9,negative).
example(e197,f10,negative).
example(e197,f11,negative).
example(e198,f1,negative).
example(e198,f2,negative).
example(e198,f3,positive).
example(e198,f4,negative).
example(e198,f5,positive).
example(e198,f6,negative).
example(e198,f7,negative).
example(e198,f8,positive).
example(e198,f9,negative).
example(e198,f10,negative).
example(e198,f11,positive).
example(e199,f1,negative).
example(e199,f2,negative).
example(e199,f3,positive).
example(e199,f4,negative).
example(e199,f5,positive).
example(e199,f6,negative).
example(e199,f7,negative).
example(e199,f8,negative).
example(e199,f9,positive).
example(e199,f10,negative).
example(e199,f11,negative).
example(e200,f1,negative).
example(e200,f2,negative).
example(e200,f3,positive).
example(e200,f4,negative).
example(e200,f5,positive).
example(e200,f6,negative).
example(e200,f7,negative).
example(e200,f8,negative).
example(e200,f9,positive).
example(e200,f10,negative).
example(e200,f11,positive).
example(e201,f1,negative).
example(e201,f2,negative).
example(e201,f3,positive).
example(e201,f4,negative).
example(e201,f5,positive).
example(e201,f6,negative).
example(e201,f7,negative).
example(e201,f8,negative).
example(e201,f9,negative).
example(e201,f10,positive).
example(e201,f11,negative).
example(e202,f1,negative).
example(e202,f2,negative).
example(e202,f3,positive).
example(e202,f4,negative).
example(e202,f5,positive).
example(e202,f6,negative).
example(e202,f7,negative).
example(e202,f8,negative).
example(e202,f9,negative).
example(e202,f10,positive).
example(e202,f11,positive).
example(e203,f1,negative).
example(e203,f2,negative).
example(e203,f3,positive).
example(e203,f4,negative).
example(e203,f5,positive).
example(e203,f6,positive).
example(e203,f7,negative).
example(e203,f8,negative).
example(e203,f9,negative).
example(e203,f10,negative).
example(e203,f11,negative).
example(e204,f1,negative).
example(e204,f2,negative).
example(e204,f3,positive).
example(e204,f4,negative).
example(e204,f5,positive).
example(e204,f6,positive).
example(e204,f7,negative).
example(e204,f8,negative).
example(e204,f9,negative).
example(e204,f10,negative).
example(e204,f11,positive).
example(e205,f1,negative).
example(e205,f2,negative).
example(e205,f3,positive).
example(e205,f4,negative).
example(e205,f5,positive).
example(e205,f6,positive).
example(e205,f7,negative).
example(e205,f8,positive).
example(e205,f9,negative).
example(e205,f10,negative).
example(e205,f11,negative).
example(e206,f1,negative).
example(e206,f2,negative).
example(e206,f3,positive).
example(e206,f4,negative).
example(e206,f5,positive).
example(e206,f6,positive).
example(e206,f7,negative).
example(e206,f8,positive).
example(e206,f9,negative).
example(e206,f10,negative).
example(e206,f11,positive).
example(e207,f1,negative).
example(e207,f2,negative).
example(e207,f3,positive).
example(e207,f4,negative).
example(e207,f5,positive).
example(e207,f6,positive).
example(e207,f7,negative).
example(e207,f8,negative).
example(e207,f9,positive).
example(e207,f10,negative).
example(e207,f11,negative).
example(e208,f1,negative).
example(e208,f2,negative).
example(e208,f3,positive).
example(e208,f4,negative).
example(e208,f5,positive).
example(e208,f6,positive).
example(e208,f7,negative).
example(e208,f8,negative).
example(e208,f9,positive).
example(e208,f10,negative).
example(e208,f11,positive).
example(e209,f1,negative).
example(e209,f2,negative).
example(e209,f3,positive).
example(e209,f4,negative).
example(e209,f5,positive).
example(e209,f6,positive).
example(e209,f7,negative).
example(e209,f8,negative).
example(e209,f9,negative).
example(e209,f10,positive).
example(e209,f11,negative).
example(e210,f1,negative).
example(e210,f2,negative).
example(e210,f3,positive).
example(e210,f4,negative).
example(e210,f5,positive).
example(e210,f6,positive).
example(e210,f7,negative).
example(e210,f8,negative).
example(e210,f9,negative).
example(e210,f10,positive).
example(e210,f11,positive).
example(e211,f1,negative).
example(e211,f2,negative).
example(e211,f3,positive).
example(e211,f4,negative).
example(e211,f5,positive).
example(e211,f6,negative).
example(e211,f7,positive).
example(e211,f8,negative).
example(e211,f9,negative).
example(e211,f10,negative).
example(e211,f11,negative).
example(e212,f1,negative).
example(e212,f2,negative).
example(e212,f3,positive).
example(e212,f4,negative).
example(e212,f5,positive).
example(e212,f6,negative).
example(e212,f7,positive).
example(e212,f8,negative).
example(e212,f9,negative).
example(e212,f10,negative).
example(e212,f11,positive).
example(e213,f1,negative).
example(e213,f2,negative).
example(e213,f3,positive).
example(e213,f4,negative).
example(e213,f5,positive).
example(e213,f6,negative).
example(e213,f7,positive).
example(e213,f8,positive).
example(e213,f9,negative).
example(e213,f10,negative).
example(e213,f11,negative).
example(e214,f1,negative).
example(e214,f2,negative).
example(e214,f3,positive).
example(e214,f4,negative).
example(e214,f5,positive).
example(e214,f6,negative).
example(e214,f7,positive).
example(e214,f8,positive).
example(e214,f9,negative).
example(e214,f10,negative).
example(e214,f11,positive).
example(e215,f1,negative).
example(e215,f2,negative).
example(e215,f3,positive).
example(e215,f4,negative).
example(e215,f5,positive).
example(e215,f6,negative).
example(e215,f7,positive).
example(e215,f8,negative).
example(e215,f9,positive).
example(e215,f10,negative).
example(e215,f11,negative).
example(e216,f1,negative).
example(e216,f2,negative).
example(e216,f3,positive).
example(e216,f4,negative).
example(e216,f5,positive).
example(e216,f6,negative).
example(e216,f7,positive).
example(e216,f8,negative).
example(e216,f9,positive).
example(e216,f10,negative).
example(e216,f11,positive).
example(e217,f1,negative).
example(e217,f2,negative).
example(e217,f3,positive).
example(e217,f4,negative).
example(e217,f5,positive).
example(e217,f6,negative).
example(e217,f7,positive).
example(e217,f8,negative).
example(e217,f9,negative).
example(e217,f10,positive).
example(e217,f11,negative).
example(e218,f1,negative).
example(e218,f2,negative).
example(e218,f3,positive).
example(e218,f4,negative).
example(e218,f5,positive).
example(e218,f6,negative).
example(e218,f7,positive).
example(e218,f8,negative).
example(e218,f9,negative).
example(e218,f10,positive).
example(e218,f11,positive).
example(e219,f1,negative).
example(e219,f2,negative).
example(e219,f3,negative).
example(e219,f4,positive).
example(e219,f5,negative).
example(e219,f6,negative).
example(e219,f7,negative).
example(e219,f8,negative).
example(e219,f9,negative).
example(e219,f10,negative).
example(e219,f11,negative).
example(e220,f1,negative).
example(e220,f2,negative).
example(e220,f3,negative).
example(e220,f4,positive).
example(e220,f5,negative).
example(e220,f6,negative).
example(e220,f7,negative).
example(e220,f8,negative).
example(e220,f9,negative).
example(e220,f10,negative).
example(e220,f11,positive).
example(e221,f1,negative).
example(e221,f2,negative).
example(e221,f3,negative).
example(e221,f4,positive).
example(e221,f5,negative).
example(e221,f6,negative).
example(e221,f7,negative).
example(e221,f8,positive).
example(e221,f9,negative).
example(e221,f10,negative).
example(e221,f11,negative).
example(e222,f1,negative).
example(e222,f2,negative).
example(e222,f3,negative).
example(e222,f4,positive).
example(e222,f5,negative).
example(e222,f6,negative).
example(e222,f7,negative).
example(e222,f8,positive).
example(e222,f9,negative).
example(e222,f10,negative).
example(e222,f11,positive).
example(e223,f1,negative).
example(e223,f2,negative).
example(e223,f3,negative).
example(e223,f4,positive).
example(e223,f5,negative).
example(e223,f6,negative).
example(e223,f7,negative).
example(e223,f8,negative).
example(e223,f9,positive).
example(e223,f10,negative).
example(e223,f11,negative).
example(e224,f1,negative).
example(e224,f2,negative).
example(e224,f3,negative).
example(e224,f4,positive).
example(e224,f5,negative).
example(e224,f6,negative).
example(e224,f7,negative).
example(e224,f8,negative).
example(e224,f9,positive).
example(e224,f10,negative).
example(e224,f11,positive).
example(e225,f1,negative).
example(e225,f2,negative).
example(e225,f3,negative).
example(e225,f4,positive).
example(e225,f5,negative).
example(e225,f6,negative).
example(e225,f7,negative).
example(e225,f8,negative).
example(e225,f9,negative).
example(e225,f10,positive).
example(e225,f11,negative).
example(e226,f1,negative).
example(e226,f2,negative).
example(e226,f3,negative).
example(e226,f4,positive).
example(e226,f5,negative).
example(e226,f6,negative).
example(e226,f7,negative).
example(e226,f8,negative).
example(e226,f9,negative).
example(e226,f10,positive).
example(e226,f11,positive).
example(e227,f1,negative).
example(e227,f2,negative).
example(e227,f3,negative).
example(e227,f4,positive).
example(e227,f5,negative).
example(e227,f6,positive).
example(e227,f7,negative).
example(e227,f8,negative).
example(e227,f9,negative).
example(e227,f10,negative).
example(e227,f11,negative).
example(e228,f1,negative).
example(e228,f2,negative).
example(e228,f3,negative).
example(e228,f4,positive).
example(e228,f5,negative).
example(e228,f6,positive).
example(e228,f7,negative).
example(e228,f8,negative).
example(e228,f9,negative).
example(e228,f10,negative).
example(e228,f11,positive).
example(e229,f1,negative).
example(e229,f2,negative).
example(e229,f3,negative).
example(e229,f4,positive).
example(e229,f5,negative).
example(e229,f6,positive).
example(e229,f7,negative).
example(e229,f8,positive).
example(e229,f9,negative).
example(e229,f10,negative).
example(e229,f11,negative).
example(e230,f1,negative).
example(e230,f2,negative).
example(e230,f3,negative).
example(e230,f4,positive).
example(e230,f5,negative).
example(e230,f6,positive).
example(e230,f7,negative).
example(e230,f8,positive).
example(e230,f9,negative).
example(e230,f10,negative).
example(e230,f11,positive).
example(e231,f1,negative).
example(e231,f2,negative).
example(e231,f3,negative).
example(e231,f4,positive).
example(e231,f5,negative).
example(e231,f6,positive).
example(e231,f7,negative).
example(e231,f8,negative).
example(e231,f9,positive).
example(e231,f10,negative).
example(e231,f11,negative).
example(e232,f1,negative).
example(e232,f2,negative).
example(e232,f3,negative).
example(e232,f4,positive).
example(e232,f5,negative).
example(e232,f6,positive).
example(e232,f7,negative).
example(e232,f8,negative).
example(e232,f9,positive).
example(e232,f10,negative).
example(e232,f11,positive).
example(e233,f1,negative).
example(e233,f2,negative).
example(e233,f3,negative).
example(e233,f4,positive).
example(e233,f5,negative).
example(e233,f6,positive).
example(e233,f7,negative).
example(e233,f8,negative).
example(e233,f9,negative).
example(e233,f10,positive).
example(e233,f11,negative).
example(e234,f1,negative).
example(e234,f2,negative).
example(e234,f3,negative).
example(e234,f4,positive).
example(e234,f5,negative).
example(e234,f6,positive).
example(e234,f7,negative).
example(e234,f8,negative).
example(e234,f9,negative).
example(e234,f10,positive).
example(e234,f11,positive).
example(e235,f1,negative).
example(e235,f2,negative).
example(e235,f3,negative).
example(e235,f4,positive).
example(e235,f5,negative).
example(e235,f6,negative).
example(e235,f7,positive).
example(e235,f8,negative).
example(e235,f9,negative).
example(e235,f10,negative).
example(e235,f11,negative).
example(e236,f1,negative).
example(e236,f2,negative).
example(e236,f3,negative).
example(e236,f4,positive).
example(e236,f5,negative).
example(e236,f6,negative).
example(e236,f7,positive).
example(e236,f8,negative).
example(e236,f9,negative).
example(e236,f10,negative).
example(e236,f11,positive).
example(e237,f1,negative).
example(e237,f2,negative).
example(e237,f3,negative).
example(e237,f4,positive).
example(e237,f5,negative).
example(e237,f6,negative).
example(e237,f7,positive).
example(e237,f8,positive).
example(e237,f9,negative).
example(e237,f10,negative).
example(e237,f11,negative).
example(e238,f1,negative).
example(e238,f2,negative).
example(e238,f3,negative).
example(e238,f4,positive).
example(e238,f5,negative).
example(e238,f6,negative).
example(e238,f7,positive).
example(e238,f8,positive).
example(e238,f9,negative).
example(e238,f10,negative).
example(e238,f11,positive).
example(e239,f1,negative).
example(e239,f2,negative).
example(e239,f3,negative).
example(e239,f4,positive).
example(e239,f5,negative).
example(e239,f6,negative).
example(e239,f7,positive).
example(e239,f8,negative).
example(e239,f9,positive).
example(e239,f10,negative).
example(e239,f11,negative).
example(e240,f1,negative).
example(e240,f2,negative).
example(e240,f3,negative).
example(e240,f4,positive).
example(e240,f5,negative).
example(e240,f6,negative).
example(e240,f7,positive).
example(e240,f8,negative).
example(e240,f9,positive).
example(e240,f10,negative).
example(e240,f11,positive).
example(e241,f1,negative).
example(e241,f2,negative).
example(e241,f3,negative).
example(e241,f4,positive).
example(e241,f5,negative).
example(e241,f6,negative).
example(e241,f7,positive).
example(e241,f8,negative).
example(e241,f9,negative).
example(e241,f10,positive).
example(e241,f11,negative).
example(e242,f1,negative).
example(e242,f2,negative).
example(e242,f3,negative).
example(e242,f4,positive).
example(e242,f5,negative).
example(e242,f6,negative).
example(e242,f7,positive).
example(e242,f8,negative).
example(e242,f9,negative).
example(e242,f10,positive).
example(e242,f11,positive).
example(e243,f1,negative).
example(e243,f2,negative).
example(e243,f3,negative).
example(e243,f4,positive).
example(e243,f5,positive).
example(e243,f6,negative).
example(e243,f7,negative).
example(e243,f8,negative).
example(e243,f9,negative).
example(e243,f10,negative).
example(e243,f11,negative).
example(e244,f1,negative).
example(e244,f2,negative).
example(e244,f3,negative).
example(e244,f4,positive).
example(e244,f5,positive).
example(e244,f6,negative).
example(e244,f7,negative).
example(e244,f8,negative).
example(e244,f9,negative).
example(e244,f10,negative).
example(e244,f11,positive).
example(e245,f1,negative).
example(e245,f2,negative).
example(e245,f3,negative).
example(e245,f4,positive).
example(e245,f5,positive).
example(e245,f6,negative).
example(e245,f7,negative).
example(e245,f8,positive).
example(e245,f9,negative).
example(e245,f10,negative).
example(e245,f11,negative).
example(e246,f1,negative).
example(e246,f2,negative).
example(e246,f3,negative).
example(e246,f4,positive).
example(e246,f5,positive).
example(e246,f6,negative).
example(e246,f7,negative).
example(e246,f8,positive).
example(e246,f9,negative).
example(e246,f10,negative).
example(e246,f11,positive).
example(e247,f1,negative).
example(e247,f2,negative).
example(e247,f3,negative).
example(e247,f4,positive).
example(e247,f5,positive).
example(e247,f6,negative).
example(e247,f7,negative).
example(e247,f8,negative).
example(e247,f9,positive).
example(e247,f10,negative).
example(e247,f11,negative).
example(e248,f1,negative).
example(e248,f2,negative).
example(e248,f3,negative).
example(e248,f4,positive).
example(e248,f5,positive).
example(e248,f6,negative).
example(e248,f7,negative).
example(e248,f8,negative).
example(e248,f9,positive).
example(e248,f10,negative).
example(e248,f11,positive).
example(e249,f1,negative).
example(e249,f2,negative).
example(e249,f3,negative).
example(e249,f4,positive).
example(e249,f5,positive).
example(e249,f6,negative).
example(e249,f7,negative).
example(e249,f8,negative).
example(e249,f9,negative).
example(e249,f10,positive).
example(e249,f11,negative).
example(e250,f1,negative).
example(e250,f2,negative).
example(e250,f3,negative).
example(e250,f4,positive).
example(e250,f5,positive).
example(e250,f6,negative).
example(e250,f7,negative).
example(e250,f8,negative).
example(e250,f9,negative).
example(e250,f10,positive).
example(e250,f11,positive).
example(e251,f1,negative).
example(e251,f2,negative).
example(e251,f3,negative).
example(e251,f4,positive).
example(e251,f5,positive).
example(e251,f6,positive).
example(e251,f7,negative).
example(e251,f8,negative).
example(e251,f9,negative).
example(e251,f10,negative).
example(e251,f11,negative).
example(e252,f1,negative).
example(e252,f2,negative).
example(e252,f3,negative).
example(e252,f4,positive).
example(e252,f5,positive).
example(e252,f6,positive).
example(e252,f7,negative).
example(e252,f8,negative).
example(e252,f9,negative).
example(e252,f10,negative).
example(e252,f11,positive).
example(e253,f1,negative).
example(e253,f2,negative).
example(e253,f3,negative).
example(e253,f4,positive).
example(e253,f5,positive).
example(e253,f6,positive).
example(e253,f7,negative).
example(e253,f8,positive).
example(e253,f9,negative).
example(e253,f10,negative).
example(e253,f11,negative).
example(e254,f1,negative).
example(e254,f2,negative).
example(e254,f3,negative).
example(e254,f4,positive).
example(e254,f5,positive).
example(e254,f6,positive).
example(e254,f7,negative).
example(e254,f8,positive).
example(e254,f9,negative).
example(e254,f10,negative).
example(e254,f11,positive).
example(e255,f1,negative).
example(e255,f2,negative).
example(e255,f3,negative).
example(e255,f4,positive).
example(e255,f5,positive).
example(e255,f6,positive).
example(e255,f7,negative).
example(e255,f8,negative).
example(e255,f9,positive).
example(e255,f10,negative).
example(e255,f11,negative).
example(e256,f1,negative).
example(e256,f2,negative).
example(e256,f3,negative).
example(e256,f4,positive).
example(e256,f5,positive).
example(e256,f6,positive).
example(e256,f7,negative).
example(e256,f8,negative).
example(e256,f9,positive).
example(e256,f10,negative).
example(e256,f11,positive).
example(e257,f1,negative).
example(e257,f2,negative).
example(e257,f3,negative).
example(e257,f4,positive).
example(e257,f5,positive).
example(e257,f6,positive).
example(e257,f7,negative).
example(e257,f8,negative).
example(e257,f9,negative).
example(e257,f10,positive).
example(e257,f11,negative).
example(e258,f1,negative).
example(e258,f2,negative).
example(e258,f3,negative).
example(e258,f4,positive).
example(e258,f5,positive).
example(e258,f6,positive).
example(e258,f7,negative).
example(e258,f8,negative).
example(e258,f9,negative).
example(e258,f10,positive).
example(e258,f11,positive).
example(e259,f1,negative).
example(e259,f2,negative).
example(e259,f3,negative).
example(e259,f4,positive).
example(e259,f5,positive).
example(e259,f6,negative).
example(e259,f7,positive).
example(e259,f8,negative).
example(e259,f9,negative).
example(e259,f10,negative).
example(e259,f11,negative).
example(e260,f1,negative).
example(e260,f2,negative).
example(e260,f3,negative).
example(e260,f4,positive).
example(e260,f5,positive).
example(e260,f6,negative).
example(e260,f7,positive).
example(e260,f8,negative).
example(e260,f9,negative).
example(e260,f10,negative).
example(e260,f11,positive).
example(e261,f1,negative).
example(e261,f2,negative).
example(e261,f3,negative).
example(e261,f4,positive).
example(e261,f5,positive).
example(e261,f6,negative).
example(e261,f7,positive).
example(e261,f8,positive).
example(e261,f9,negative).
example(e261,f10,negative).
example(e261,f11,negative).
example(e262,f1,negative).
example(e262,f2,negative).
example(e262,f3,negative).
example(e262,f4,positive).
example(e262,f5,positive).
example(e262,f6,negative).
example(e262,f7,positive).
example(e262,f8,positive).
example(e262,f9,negative).
example(e262,f10,negative).
example(e262,f11,positive).
example(e263,f1,negative).
example(e263,f2,negative).
example(e263,f3,negative).
example(e263,f4,positive).
example(e263,f5,positive).
example(e263,f6,negative).
example(e263,f7,positive).
example(e263,f8,negative).
example(e263,f9,positive).
example(e263,f10,negative).
example(e263,f11,negative).
example(e264,f1,negative).
example(e264,f2,negative).
example(e264,f3,negative).
example(e264,f4,positive).
example(e264,f5,positive).
example(e264,f6,negative).
example(e264,f7,positive).
example(e264,f8,negative).
example(e264,f9,positive).
example(e264,f10,negative).
example(e264,f11,positive).
example(e265,f1,negative).
example(e265,f2,negative).
example(e265,f3,negative).
example(e265,f4,positive).
example(e265,f5,positive).
example(e265,f6,negative).
example(e265,f7,positive).
example(e265,f8,negative).
example(e265,f9,negative).
example(e265,f10,positive).
example(e265,f11,negative).
example(e266,f1,negative).
example(e266,f2,negative).
example(e266,f3,negative).
example(e266,f4,positive).
example(e266,f5,positive).
example(e266,f6,negative).
example(e266,f7,positive).
example(e266,f8,negative).
example(e266,f9,negative).
example(e266,f10,positive).
example(e266,f11,positive).
example(e267,f1,positive).
example(e267,f2,negative).
example(e267,f3,negative).
example(e267,f4,negative).
example(e267,f5,negative).
example(e267,f6,negative).
example(e267,f7,negative).
example(e267,f8,negative).
example(e267,f9,negative).
example(e267,f10,negative).
example(e267,f11,negative).
example(e268,f1,positive).
example(e268,f2,negative).
example(e268,f3,negative).
example(e268,f4,negative).
example(e268,f5,negative).
example(e268,f6,negative).
example(e268,f7,negative).
example(e268,f8,negative).
example(e268,f9,negative).
example(e268,f10,negative).
example(e268,f11,positive).
example(e269,f1,positive).
example(e269,f2,negative).
example(e269,f3,negative).
example(e269,f4,negative).
example(e269,f5,negative).
example(e269,f6,negative).
example(e269,f7,negative).
example(e269,f8,positive).
example(e269,f9,negative).
example(e269,f10,negative).
example(e269,f11,negative).
example(e270,f1,positive).
example(e270,f2,negative).
example(e270,f3,negative).
example(e270,f4,negative).
example(e270,f5,negative).
example(e270,f6,negative).
example(e270,f7,negative).
example(e270,f8,positive).
example(e270,f9,negative).
example(e270,f10,negative).
example(e270,f11,positive).
example(e271,f1,positive).
example(e271,f2,negative).
example(e271,f3,negative).
example(e271,f4,negative).
example(e271,f5,negative).
example(e271,f6,negative).
example(e271,f7,negative).
example(e271,f8,negative).
example(e271,f9,positive).
example(e271,f10,negative).
example(e271,f11,negative).
example(e272,f1,positive).
example(e272,f2,negative).
example(e272,f3,negative).
example(e272,f4,negative).
example(e272,f5,negative).
example(e272,f6,negative).
example(e272,f7,negative).
example(e272,f8,negative).
example(e272,f9,positive).
example(e272,f10,negative).
example(e272,f11,positive).
example(e273,f1,positive).
example(e273,f2,negative).
example(e273,f3,negative).
example(e273,f4,negative).
example(e273,f5,negative).
example(e273,f6,negative).
example(e273,f7,negative).
example(e273,f8,negative).
example(e273,f9,negative).
example(e273,f10,positive).
example(e273,f11,negative).
example(e274,f1,positive).
example(e274,f2,negative).
example(e274,f3,negative).
example(e274,f4,negative).
example(e274,f5,negative).
example(e274,f6,negative).
example(e274,f7,negative).
example(e274,f8,negative).
example(e274,f9,negative).
example(e274,f10,positive).
example(e274,f11,positive).
example(e275,f1,positive).
example(e275,f2,negative).
example(e275,f3,negative).
example(e275,f4,negative).
example(e275,f5,negative).
example(e275,f6,positive).
example(e275,f7,negative).
example(e275,f8,negative).
example(e275,f9,negative).
example(e275,f10,negative).
example(e275,f11,negative).
example(e276,f1,positive).
example(e276,f2,negative).
example(e276,f3,negative).
example(e276,f4,negative).
example(e276,f5,negative).
example(e276,f6,positive).
example(e276,f7,negative).
example(e276,f8,negative).
example(e276,f9,negative).
example(e276,f10,negative).
example(e276,f11,positive).
example(e277,f1,positive).
example(e277,f2,negative).
example(e277,f3,negative).
example(e277,f4,negative).
example(e277,f5,negative).
example(e277,f6,positive).
example(e277,f7,negative).
example(e277,f8,positive).
example(e277,f9,negative).
example(e277,f10,negative).
example(e277,f11,negative).
example(e278,f1,positive).
example(e278,f2,negative).
example(e278,f3,negative).
example(e278,f4,negative).
example(e278,f5,negative).
example(e278,f6,positive).
example(e278,f7,negative).
example(e278,f8,positive).
example(e278,f9,negative).
example(e278,f10,negative).
example(e278,f11,positive).
example(e279,f1,positive).
example(e279,f2,negative).
example(e279,f3,negative).
example(e279,f4,negative).
example(e279,f5,negative).
example(e279,f6,positive).
example(e279,f7,negative).
example(e279,f8,negative).
example(e279,f9,positive).
example(e279,f10,negative).
example(e279,f11,negative).
example(e280,f1,positive).
example(e280,f2,negative).
example(e280,f3,negative).
example(e280,f4,negative).
example(e280,f5,negative).
example(e280,f6,positive).
example(e280,f7,negative).
example(e280,f8,negative).
example(e280,f9,positive).
example(e280,f10,negative).
example(e280,f11,positive).
example(e281,f1,positive).
example(e281,f2,negative).
example(e281,f3,negative).
example(e281,f4,negative).
example(e281,f5,negative).
example(e281,f6,positive).
example(e281,f7,negative).
example(e281,f8,negative).
example(e281,f9,negative).
example(e281,f10,positive).
example(e281,f11,negative).
example(e282,f1,positive).
example(e282,f2,negative).
example(e282,f3,negative).
example(e282,f4,negative).
example(e282,f5,negative).
example(e282,f6,positive).
example(e282,f7,negative).
example(e282,f8,negative).
example(e282,f9,negative).
example(e282,f10,positive).
example(e282,f11,positive).
example(e283,f1,positive).
example(e283,f2,negative).
example(e283,f3,negative).
example(e283,f4,negative).
example(e283,f5,negative).
example(e283,f6,negative).
example(e283,f7,positive).
example(e283,f8,negative).
example(e283,f9,negative).
example(e283,f10,negative).
example(e283,f11,negative).
example(e284,f1,positive).
example(e284,f2,negative).
example(e284,f3,negative).
example(e284,f4,negative).
example(e284,f5,negative).
example(e284,f6,negative).
example(e284,f7,positive).
example(e284,f8,negative).
example(e284,f9,negative).
example(e284,f10,negative).
example(e284,f11,positive).
example(e285,f1,positive).
example(e285,f2,negative).
example(e285,f3,negative).
example(e285,f4,negative).
example(e285,f5,negative).
example(e285,f6,negative).
example(e285,f7,positive).
example(e285,f8,positive).
example(e285,f9,negative).
example(e285,f10,negative).
example(e285,f11,negative).
example(e286,f1,positive).
example(e286,f2,negative).
example(e286,f3,negative).
example(e286,f4,negative).
example(e286,f5,negative).
example(e286,f6,negative).
example(e286,f7,positive).
example(e286,f8,positive).
example(e286,f9,negative).
example(e286,f10,negative).
example(e286,f11,positive).
example(e287,f1,positive).
example(e287,f2,negative).
example(e287,f3,negative).
example(e287,f4,negative).
example(e287,f5,negative).
example(e287,f6,negative).
example(e287,f7,positive).
example(e287,f8,negative).
example(e287,f9,positive).
example(e287,f10,negative).
example(e287,f11,negative).
example(e288,f1,positive).
example(e288,f2,negative).
example(e288,f3,negative).
example(e288,f4,negative).
example(e288,f5,negative).
example(e288,f6,negative).
example(e288,f7,positive).
example(e288,f8,negative).
example(e288,f9,positive).
example(e288,f10,negative).
example(e288,f11,positive).
example(e289,f1,positive).
example(e289,f2,negative).
example(e289,f3,negative).
example(e289,f4,negative).
example(e289,f5,negative).
example(e289,f6,negative).
example(e289,f7,positive).
example(e289,f8,negative).
example(e289,f9,negative).
example(e289,f10,positive).
example(e289,f11,negative).
example(e290,f1,positive).
example(e290,f2,negative).
example(e290,f3,negative).
example(e290,f4,negative).
example(e290,f5,negative).
example(e290,f6,negative).
example(e290,f7,positive).
example(e290,f8,negative).
example(e290,f9,negative).
example(e290,f10,positive).
example(e290,f11,positive).
example(e291,f1,positive).
example(e291,f2,negative).
example(e291,f3,negative).
example(e291,f4,negative).
example(e291,f5,positive).
example(e291,f6,negative).
example(e291,f7,negative).
example(e291,f8,negative).
example(e291,f9,negative).
example(e291,f10,negative).
example(e291,f11,negative).
example(e292,f1,positive).
example(e292,f2,negative).
example(e292,f3,negative).
example(e292,f4,negative).
example(e292,f5,positive).
example(e292,f6,negative).
example(e292,f7,negative).
example(e292,f8,negative).
example(e292,f9,negative).
example(e292,f10,negative).
example(e292,f11,positive).
example(e293,f1,positive).
example(e293,f2,negative).
example(e293,f3,negative).
example(e293,f4,negative).
example(e293,f5,positive).
example(e293,f6,negative).
example(e293,f7,negative).
example(e293,f8,positive).
example(e293,f9,negative).
example(e293,f10,negative).
example(e293,f11,negative).
example(e294,f1,positive).
example(e294,f2,negative).
example(e294,f3,negative).
example(e294,f4,negative).
example(e294,f5,positive).
example(e294,f6,negative).
example(e294,f7,negative).
example(e294,f8,positive).
example(e294,f9,negative).
example(e294,f10,negative).
example(e294,f11,positive).
example(e295,f1,positive).
example(e295,f2,negative).
example(e295,f3,negative).
example(e295,f4,negative).
example(e295,f5,positive).
example(e295,f6,negative).
example(e295,f7,negative).
example(e295,f8,negative).
example(e295,f9,positive).
example(e295,f10,negative).
example(e295,f11,negative).
example(e296,f1,positive).
example(e296,f2,negative).
example(e296,f3,negative).
example(e296,f4,negative).
example(e296,f5,positive).
example(e296,f6,negative).
example(e296,f7,negative).
example(e296,f8,negative).
example(e296,f9,positive).
example(e296,f10,negative).
example(e296,f11,positive).
example(e297,f1,positive).
example(e297,f2,negative).
example(e297,f3,negative).
example(e297,f4,negative).
example(e297,f5,positive).
example(e297,f6,negative).
example(e297,f7,negative).
example(e297,f8,negative).
example(e297,f9,negative).
example(e297,f10,positive).
example(e297,f11,negative).
example(e298,f1,positive).
example(e298,f2,negative).
example(e298,f3,negative).
example(e298,f4,negative).
example(e298,f5,positive).
example(e298,f6,negative).
example(e298,f7,negative).
example(e298,f8,negative).
example(e298,f9,negative).
example(e298,f10,positive).
example(e298,f11,positive).
example(e299,f1,positive).
example(e299,f2,negative).
example(e299,f3,negative).
example(e299,f4,negative).
example(e299,f5,positive).
example(e299,f6,positive).
example(e299,f7,negative).
example(e299,f8,negative).
example(e299,f9,negative).
example(e299,f10,negative).
example(e299,f11,negative).
example(e300,f1,positive).
example(e300,f2,negative).
example(e300,f3,negative).
example(e300,f4,negative).
example(e300,f5,positive).
example(e300,f6,positive).
example(e300,f7,negative).
example(e300,f8,negative).
example(e300,f9,negative).
example(e300,f10,negative).
example(e300,f11,positive).
example(e301,f1,positive).
example(e301,f2,negative).
example(e301,f3,negative).
example(e301,f4,negative).
example(e301,f5,positive).
example(e301,f6,positive).
example(e301,f7,negative).
example(e301,f8,positive).
example(e301,f9,negative).
example(e301,f10,negative).
example(e301,f11,negative).
example(e302,f1,positive).
example(e302,f2,negative).
example(e302,f3,negative).
example(e302,f4,negative).
example(e302,f5,positive).
example(e302,f6,positive).
example(e302,f7,negative).
example(e302,f8,positive).
example(e302,f9,negative).
example(e302,f10,negative).
example(e302,f11,positive).
example(e303,f1,positive).
example(e303,f2,negative).
example(e303,f3,negative).
example(e303,f4,negative).
example(e303,f5,positive).
example(e303,f6,positive).
example(e303,f7,negative).
example(e303,f8,negative).
example(e303,f9,positive).
example(e303,f10,negative).
example(e303,f11,negative).
example(e304,f1,positive).
example(e304,f2,negative).
example(e304,f3,negative).
example(e304,f4,negative).
example(e304,f5,positive).
example(e304,f6,positive).
example(e304,f7,negative).
example(e304,f8,negative).
example(e304,f9,positive).
example(e304,f10,negative).
example(e304,f11,positive).
example(e305,f1,positive).
example(e305,f2,negative).
example(e305,f3,negative).
example(e305,f4,negative).
example(e305,f5,positive).
example(e305,f6,positive).
example(e305,f7,negative).
example(e305,f8,negative).
example(e305,f9,negative).
example(e305,f10,positive).
example(e305,f11,negative).
example(e306,f1,positive).
example(e306,f2,negative).
example(e306,f3,negative).
example(e306,f4,negative).
example(e306,f5,positive).
example(e306,f6,positive).
example(e306,f7,negative).
example(e306,f8,negative).
example(e306,f9,negative).
example(e306,f10,positive).
example(e306,f11,positive).
example(e307,f1,positive).
example(e307,f2,negative).
example(e307,f3,negative).
example(e307,f4,negative).
example(e307,f5,positive).
example(e307,f6,negative).
example(e307,f7,positive).
example(e307,f8,negative).
example(e307,f9,negative).
example(e307,f10,negative).
example(e307,f11,negative).
example(e308,f1,positive).
example(e308,f2,negative).
example(e308,f3,negative).
example(e308,f4,negative).
example(e308,f5,positive).
example(e308,f6,negative).
example(e308,f7,positive).
example(e308,f8,negative).
example(e308,f9,negative).
example(e308,f10,negative).
example(e308,f11,positive).
example(e309,f1,positive).
example(e309,f2,negative).
example(e309,f3,negative).
example(e309,f4,negative).
example(e309,f5,positive).
example(e309,f6,negative).
example(e309,f7,positive).
example(e309,f8,positive).
example(e309,f9,negative).
example(e309,f10,negative).
example(e309,f11,negative).
example(e310,f1,positive).
example(e310,f2,negative).
example(e310,f3,negative).
example(e310,f4,negative).
example(e310,f5,positive).
example(e310,f6,negative).
example(e310,f7,positive).
example(e310,f8,positive).
example(e310,f9,negative).
example(e310,f10,negative).
example(e310,f11,positive).
example(e311,f1,positive).
example(e311,f2,negative).
example(e311,f3,negative).
example(e311,f4,negative).
example(e311,f5,positive).
example(e311,f6,negative).
example(e311,f7,positive).
example(e311,f8,negative).
example(e311,f9,positive).
example(e311,f10,negative).
example(e311,f11,negative).
example(e312,f1,positive).
example(e312,f2,negative).
example(e312,f3,negative).
example(e312,f4,negative).
example(e312,f5,positive).
example(e312,f6,negative).
example(e312,f7,positive).
example(e312,f8,negative).
example(e312,f9,positive).
example(e312,f10,negative).
example(e312,f11,positive).
example(e313,f1,positive).
example(e313,f2,negative).
example(e313,f3,negative).
example(e313,f4,negative).
example(e313,f5,positive).
example(e313,f6,negative).
example(e313,f7,positive).
example(e313,f8,negative).
example(e313,f9,negative).
example(e313,f10,positive).
example(e313,f11,negative).
example(e314,f1,positive).
example(e314,f2,negative).
example(e314,f3,negative).
example(e314,f4,negative).
example(e314,f5,positive).
example(e314,f6,negative).
example(e314,f7,positive).
example(e314,f8,negative).
example(e314,f9,negative).
example(e314,f10,positive).
example(e314,f11,positive).
example(e315,f1,positive).
example(e315,f2,negative).
example(e315,f3,positive).
example(e315,f4,negative).
example(e315,f5,negative).
example(e315,f6,negative).
example(e315,f7,negative).
example(e315,f8,negative).
example(e315,f9,negative).
example(e315,f10,negative).
example(e315,f11,negative).
example(e316,f1,positive).
example(e316,f2,negative).
example(e316,f3,positive).
example(e316,f4,negative).
example(e316,f5,negative).
example(e316,f6,negative).
example(e316,f7,negative).
example(e316,f8,negative).
example(e316,f9,negative).
example(e316,f10,negative).
example(e316,f11,positive).
example(e317,f1,positive).
example(e317,f2,negative).
example(e317,f3,positive).
example(e317,f4,negative).
example(e317,f5,negative).
example(e317,f6,negative).
example(e317,f7,negative).
example(e317,f8,positive).
example(e317,f9,negative).
example(e317,f10,negative).
example(e317,f11,negative).
example(e318,f1,positive).
example(e318,f2,negative).
example(e318,f3,positive).
example(e318,f4,negative).
example(e318,f5,negative).
example(e318,f6,negative).
example(e318,f7,negative).
example(e318,f8,positive).
example(e318,f9,negative).
example(e318,f10,negative).
example(e318,f11,positive).
example(e319,f1,positive).
example(e319,f2,negative).
example(e319,f3,positive).
example(e319,f4,negative).
example(e319,f5,negative).
example(e319,f6,negative).
example(e319,f7,negative).
example(e319,f8,negative).
example(e319,f9,positive).
example(e319,f10,negative).
example(e319,f11,negative).
example(e320,f1,positive).
example(e320,f2,negative).
example(e320,f3,positive).
example(e320,f4,negative).
example(e320,f5,negative).
example(e320,f6,negative).
example(e320,f7,negative).
example(e320,f8,negative).
example(e320,f9,positive).
example(e320,f10,negative).
example(e320,f11,positive).
example(e321,f1,positive).
example(e321,f2,negative).
example(e321,f3,positive).
example(e321,f4,negative).
example(e321,f5,negative).
example(e321,f6,negative).
example(e321,f7,negative).
example(e321,f8,negative).
example(e321,f9,negative).
example(e321,f10,positive).
example(e321,f11,negative).
example(e322,f1,positive).
example(e322,f2,negative).
example(e322,f3,positive).
example(e322,f4,negative).
example(e322,f5,negative).
example(e322,f6,negative).
example(e322,f7,negative).
example(e322,f8,negative).
example(e322,f9,negative).
example(e322,f10,positive).
example(e322,f11,positive).
example(e323,f1,positive).
example(e323,f2,negative).
example(e323,f3,positive).
example(e323,f4,negative).
example(e323,f5,negative).
example(e323,f6,positive).
example(e323,f7,negative).
example(e323,f8,negative).
example(e323,f9,negative).
example(e323,f10,negative).
example(e323,f11,negative).
example(e324,f1,positive).
example(e324,f2,negative).
example(e324,f3,positive).
example(e324,f4,negative).
example(e324,f5,negative).
example(e324,f6,positive).
example(e324,f7,negative).
example(e324,f8,negative).
example(e324,f9,negative).
example(e324,f10,negative).
example(e324,f11,positive).
example(e325,f1,positive).
example(e325,f2,negative).
example(e325,f3,positive).
example(e325,f4,negative).
example(e325,f5,negative).
example(e325,f6,positive).
example(e325,f7,negative).
example(e325,f8,positive).
example(e325,f9,negative).
example(e325,f10,negative).
example(e325,f11,negative).
example(e326,f1,positive).
example(e326,f2,negative).
example(e326,f3,positive).
example(e326,f4,negative).
example(e326,f5,negative).
example(e326,f6,positive).
example(e326,f7,negative).
example(e326,f8,positive).
example(e326,f9,negative).
example(e326,f10,negative).
example(e326,f11,positive).
example(e327,f1,positive).
example(e327,f2,negative).
example(e327,f3,positive).
example(e327,f4,negative).
example(e327,f5,negative).
example(e327,f6,positive).
example(e327,f7,negative).
example(e327,f8,negative).
example(e327,f9,positive).
example(e327,f10,negative).
example(e327,f11,negative).
example(e328,f1,positive).
example(e328,f2,negative).
example(e328,f3,positive).
example(e328,f4,negative).
example(e328,f5,negative).
example(e328,f6,positive).
example(e328,f7,negative).
example(e328,f8,negative).
example(e328,f9,positive).
example(e328,f10,negative).
example(e328,f11,positive).
example(e329,f1,positive).
example(e329,f2,negative).
example(e329,f3,positive).
example(e329,f4,negative).
example(e329,f5,negative).
example(e329,f6,positive).
example(e329,f7,negative).
example(e329,f8,negative).
example(e329,f9,negative).
example(e329,f10,positive).
example(e329,f11,negative).
example(e330,f1,positive).
example(e330,f2,negative).
example(e330,f3,positive).
example(e330,f4,negative).
example(e330,f5,negative).
example(e330,f6,positive).
example(e330,f7,negative).
example(e330,f8,negative).
example(e330,f9,negative).
example(e330,f10,positive).
example(e330,f11,positive).
example(e331,f1,positive).
example(e331,f2,negative).
example(e331,f3,positive).
example(e331,f4,negative).
example(e331,f5,negative).
example(e331,f6,negative).
example(e331,f7,positive).
example(e331,f8,negative).
example(e331,f9,negative).
example(e331,f10,negative).
example(e331,f11,negative).
example(e332,f1,positive).
example(e332,f2,negative).
example(e332,f3,positive).
example(e332,f4,negative).
example(e332,f5,negative).
example(e332,f6,negative).
example(e332,f7,positive).
example(e332,f8,negative).
example(e332,f9,negative).
example(e332,f10,negative).
example(e332,f11,positive).
example(e333,f1,positive).
example(e333,f2,negative).
example(e333,f3,positive).
example(e333,f4,negative).
example(e333,f5,negative).
example(e333,f6,negative).
example(e333,f7,positive).
example(e333,f8,positive).
example(e333,f9,negative).
example(e333,f10,negative).
example(e333,f11,negative).
example(e334,f1,positive).
example(e334,f2,negative).
example(e334,f3,positive).
example(e334,f4,negative).
example(e334,f5,negative).
example(e334,f6,negative).
example(e334,f7,positive).
example(e334,f8,positive).
example(e334,f9,negative).
example(e334,f10,negative).
example(e334,f11,positive).
example(e335,f1,positive).
example(e335,f2,negative).
example(e335,f3,positive).
example(e335,f4,negative).
example(e335,f5,negative).
example(e335,f6,negative).
example(e335,f7,positive).
example(e335,f8,negative).
example(e335,f9,positive).
example(e335,f10,negative).
example(e335,f11,negative).
example(e336,f1,positive).
example(e336,f2,negative).
example(e336,f3,positive).
example(e336,f4,negative).
example(e336,f5,negative).
example(e336,f6,negative).
example(e336,f7,positive).
example(e336,f8,negative).
example(e336,f9,positive).
example(e336,f10,negative).
example(e336,f11,positive).
example(e337,f1,positive).
example(e337,f2,negative).
example(e337,f3,positive).
example(e337,f4,negative).
example(e337,f5,negative).
example(e337,f6,negative).
example(e337,f7,positive).
example(e337,f8,negative).
example(e337,f9,negative).
example(e337,f10,positive).
example(e337,f11,negative).
example(e338,f1,positive).
example(e338,f2,negative).
example(e338,f3,positive).
example(e338,f4,negative).
example(e338,f5,negative).
example(e338,f6,negative).
example(e338,f7,positive).
example(e338,f8,negative).
example(e338,f9,negative).
example(e338,f10,positive).
example(e338,f11,positive).
example(e339,f1,positive).
example(e339,f2,negative).
example(e339,f3,positive).
example(e339,f4,negative).
example(e339,f5,positive).
example(e339,f6,negative).
example(e339,f7,negative).
example(e339,f8,negative).
example(e339,f9,negative).
example(e339,f10,negative).
example(e339,f11,negative).
example(e340,f1,positive).
example(e340,f2,negative).
example(e340,f3,positive).
example(e340,f4,negative).
example(e340,f5,positive).
example(e340,f6,negative).
example(e340,f7,negative).
example(e340,f8,negative).
example(e340,f9,negative).
example(e340,f10,negative).
example(e340,f11,positive).
example(e341,f1,positive).
example(e341,f2,negative).
example(e341,f3,positive).
example(e341,f4,negative).
example(e341,f5,positive).
example(e341,f6,negative).
example(e341,f7,negative).
example(e341,f8,positive).
example(e341,f9,negative).
example(e341,f10,negative).
example(e341,f11,negative).
example(e342,f1,positive).
example(e342,f2,negative).
example(e342,f3,positive).
example(e342,f4,negative).
example(e342,f5,positive).
example(e342,f6,negative).
example(e342,f7,negative).
example(e342,f8,positive).
example(e342,f9,negative).
example(e342,f10,negative).
example(e342,f11,positive).
example(e343,f1,positive).
example(e343,f2,negative).
example(e343,f3,positive).
example(e343,f4,negative).
example(e343,f5,positive).
example(e343,f6,negative).
example(e343,f7,negative).
example(e343,f8,negative).
example(e343,f9,positive).
example(e343,f10,negative).
example(e343,f11,negative).
example(e344,f1,positive).
example(e344,f2,negative).
example(e344,f3,positive).
example(e344,f4,negative).
example(e344,f5,positive).
example(e344,f6,negative).
example(e344,f7,negative).
example(e344,f8,negative).
example(e344,f9,positive).
example(e344,f10,negative).
example(e344,f11,positive).
example(e345,f1,positive).
example(e345,f2,negative).
example(e345,f3,positive).
example(e345,f4,negative).
example(e345,f5,positive).
example(e345,f6,negative).
example(e345,f7,negative).
example(e345,f8,negative).
example(e345,f9,negative).
example(e345,f10,positive).
example(e345,f11,negative).
example(e346,f1,positive).
example(e346,f2,negative).
example(e346,f3,positive).
example(e346,f4,negative).
example(e346,f5,positive).
example(e346,f6,negative).
example(e346,f7,negative).
example(e346,f8,negative).
example(e346,f9,negative).
example(e346,f10,positive).
example(e346,f11,positive).
example(e347,f1,positive).
example(e347,f2,negative).
example(e347,f3,positive).
example(e347,f4,negative).
example(e347,f5,positive).
example(e347,f6,positive).
example(e347,f7,negative).
example(e347,f8,negative).
example(e347,f9,negative).
example(e347,f10,negative).
example(e347,f11,negative).
example(e348,f1,positive).
example(e348,f2,negative).
example(e348,f3,positive).
example(e348,f4,negative).
example(e348,f5,positive).
example(e348,f6,positive).
example(e348,f7,negative).
example(e348,f8,negative).
example(e348,f9,negative).
example(e348,f10,negative).
example(e348,f11,positive).
example(e349,f1,positive).
example(e349,f2,negative).
example(e349,f3,positive).
example(e349,f4,negative).
example(e349,f5,positive).
example(e349,f6,positive).
example(e349,f7,negative).
example(e349,f8,positive).
example(e349,f9,negative).
example(e349,f10,negative).
example(e349,f11,negative).
example(e350,f1,positive).
example(e350,f2,negative).
example(e350,f3,positive).
example(e350,f4,negative).
example(e350,f5,positive).
example(e350,f6,positive).
example(e350,f7,negative).
example(e350,f8,positive).
example(e350,f9,negative).
example(e350,f10,negative).
example(e350,f11,positive).
example(e351,f1,positive).
example(e351,f2,negative).
example(e351,f3,positive).
example(e351,f4,negative).
example(e351,f5,positive).
example(e351,f6,positive).
example(e351,f7,negative).
example(e351,f8,negative).
example(e351,f9,positive).
example(e351,f10,negative).
example(e351,f11,negative).
example(e352,f1,positive).
example(e352,f2,negative).
example(e352,f3,positive).
example(e352,f4,negative).
example(e352,f5,positive).
example(e352,f6,positive).
example(e352,f7,negative).
example(e352,f8,negative).
example(e352,f9,positive).
example(e352,f10,negative).
example(e352,f11,positive).
example(e353,f1,positive).
example(e353,f2,negative).
example(e353,f3,positive).
example(e353,f4,negative).
example(e353,f5,positive).
example(e353,f6,positive).
example(e353,f7,negative).
example(e353,f8,negative).
example(e353,f9,negative).
example(e353,f10,positive).
example(e353,f11,negative).
example(e354,f1,positive).
example(e354,f2,negative).
example(e354,f3,positive).
example(e354,f4,negative).
example(e354,f5,positive).
example(e354,f6,positive).
example(e354,f7,negative).
example(e354,f8,negative).
example(e354,f9,negative).
example(e354,f10,positive).
example(e354,f11,positive).
example(e355,f1,positive).
example(e355,f2,negative).
example(e355,f3,positive).
example(e355,f4,negative).
example(e355,f5,positive).
example(e355,f6,negative).
example(e355,f7,positive).
example(e355,f8,negative).
example(e355,f9,negative).
example(e355,f10,negative).
example(e355,f11,negative).
example(e356,f1,positive).
example(e356,f2,negative).
example(e356,f3,positive).
example(e356,f4,negative).
example(e356,f5,positive).
example(e356,f6,negative).
example(e356,f7,positive).
example(e356,f8,negative).
example(e356,f9,negative).
example(e356,f10,negative).
example(e356,f11,positive).
example(e357,f1,positive).
example(e357,f2,negative).
example(e357,f3,positive).
example(e357,f4,negative).
example(e357,f5,positive).
example(e357,f6,negative).
example(e357,f7,positive).
example(e357,f8,positive).
example(e357,f9,negative).
example(e357,f10,negative).
example(e357,f11,negative).
example(e358,f1,positive).
example(e358,f2,negative).
example(e358,f3,positive).
example(e358,f4,negative).
example(e358,f5,positive).
example(e358,f6,negative).
example(e358,f7,positive).
example(e358,f8,positive).
example(e358,f9,negative).
example(e358,f10,negative).
example(e358,f11,positive).
example(e359,f1,positive).
example(e359,f2,negative).
example(e359,f3,positive).
example(e359,f4,negative).
example(e359,f5,positive).
example(e359,f6,negative).
example(e359,f7,positive).
example(e359,f8,negative).
example(e359,f9,positive).
example(e359,f10,negative).
example(e359,f11,negative).
example(e360,f1,positive).
example(e360,f2,negative).
example(e360,f3,positive).
example(e360,f4,negative).
example(e360,f5,positive).
example(e360,f6,negative).
example(e360,f7,positive).
example(e360,f8,negative).
example(e360,f9,positive).
example(e360,f10,negative).
example(e360,f11,positive).
example(e361,f1,positive).
example(e361,f2,negative).
example(e361,f3,positive).
example(e361,f4,negative).
example(e361,f5,positive).
example(e361,f6,negative).
example(e361,f7,positive).
example(e361,f8,negative).
example(e361,f9,negative).
example(e361,f10,positive).
example(e361,f11,negative).
example(e362,f1,positive).
example(e362,f2,negative).
example(e362,f3,positive).
example(e362,f4,negative).
example(e362,f5,positive).
example(e362,f6,negative).
example(e362,f7,positive).
example(e362,f8,negative).
example(e362,f9,negative).
example(e362,f10,positive).
example(e362,f11,positive).
example(e363,f1,positive).
example(e363,f2,negative).
example(e363,f3,negative).
example(e363,f4,positive).
example(e363,f5,negative).
example(e363,f6,negative).
example(e363,f7,negative).
example(e363,f8,negative).
example(e363,f9,negative).
example(e363,f10,negative).
example(e363,f11,negative).
example(e364,f1,positive).
example(e364,f2,negative).
example(e364,f3,negative).
example(e364,f4,positive).
example(e364,f5,negative).
example(e364,f6,negative).
example(e364,f7,negative).
example(e364,f8,negative).
example(e364,f9,negative).
example(e364,f10,negative).
example(e364,f11,positive).
example(e365,f1,positive).
example(e365,f2,negative).
example(e365,f3,negative).
example(e365,f4,positive).
example(e365,f5,negative).
example(e365,f6,negative).
example(e365,f7,negative).
example(e365,f8,positive).
example(e365,f9,negative).
example(e365,f10,negative).
example(e365,f11,negative).
example(e366,f1,positive).
example(e366,f2,negative).
example(e366,f3,negative).
example(e366,f4,positive).
example(e366,f5,negative).
example(e366,f6,negative).
example(e366,f7,negative).
example(e366,f8,positive).
example(e366,f9,negative).
example(e366,f10,negative).
example(e366,f11,positive).
example(e367,f1,positive).
example(e367,f2,negative).
example(e367,f3,negative).
example(e367,f4,positive).
example(e367,f5,negative).
example(e367,f6,negative).
example(e367,f7,negative).
example(e367,f8,negative).
example(e367,f9,positive).
example(e367,f10,negative).
example(e367,f11,negative).
example(e368,f1,positive).
example(e368,f2,negative).
example(e368,f3,negative).
example(e368,f4,positive).
example(e368,f5,negative).
example(e368,f6,negative).
example(e368,f7,negative).
example(e368,f8,negative).
example(e368,f9,positive).
example(e368,f10,negative).
example(e368,f11,positive).
example(e369,f1,positive).
example(e369,f2,negative).
example(e369,f3,negative).
example(e369,f4,positive).
example(e369,f5,negative).
example(e369,f6,negative).
example(e369,f7,negative).
example(e369,f8,negative).
example(e369,f9,negative).
example(e369,f10,positive).
example(e369,f11,negative).
example(e370,f1,positive).
example(e370,f2,negative).
example(e370,f3,negative).
example(e370,f4,positive).
example(e370,f5,negative).
example(e370,f6,negative).
example(e370,f7,negative).
example(e370,f8,negative).
example(e370,f9,negative).
example(e370,f10,positive).
example(e370,f11,positive).
example(e371,f1,positive).
example(e371,f2,negative).
example(e371,f3,negative).
example(e371,f4,positive).
example(e371,f5,negative).
example(e371,f6,positive).
example(e371,f7,negative).
example(e371,f8,negative).
example(e371,f9,negative).
example(e371,f10,negative).
example(e371,f11,negative).
example(e372,f1,positive).
example(e372,f2,negative).
example(e372,f3,negative).
example(e372,f4,positive).
example(e372,f5,negative).
example(e372,f6,positive).
example(e372,f7,negative).
example(e372,f8,negative).
example(e372,f9,negative).
example(e372,f10,negative).
example(e372,f11,positive).
example(e373,f1,positive).
example(e373,f2,negative).
example(e373,f3,negative).
example(e373,f4,positive).
example(e373,f5,negative).
example(e373,f6,positive).
example(e373,f7,negative).
example(e373,f8,positive).
example(e373,f9,negative).
example(e373,f10,negative).
example(e373,f11,negative).
example(e374,f1,positive).
example(e374,f2,negative).
example(e374,f3,negative).
example(e374,f4,positive).
example(e374,f5,negative).
example(e374,f6,positive).
example(e374,f7,negative).
example(e374,f8,positive).
example(e374,f9,negative).
example(e374,f10,negative).
example(e374,f11,positive).
example(e375,f1,positive).
example(e375,f2,negative).
example(e375,f3,negative).
example(e375,f4,positive).
example(e375,f5,negative).
example(e375,f6,positive).
example(e375,f7,negative).
example(e375,f8,negative).
example(e375,f9,positive).
example(e375,f10,negative).
example(e375,f11,negative).
example(e376,f1,positive).
example(e376,f2,negative).
example(e376,f3,negative).
example(e376,f4,positive).
example(e376,f5,negative).
example(e376,f6,positive).
example(e376,f7,negative).
example(e376,f8,negative).
example(e376,f9,positive).
example(e376,f10,negative).
example(e376,f11,positive).
example(e377,f1,positive).
example(e377,f2,negative).
example(e377,f3,negative).
example(e377,f4,positive).
example(e377,f5,negative).
example(e377,f6,positive).
example(e377,f7,negative).
example(e377,f8,negative).
example(e377,f9,negative).
example(e377,f10,positive).
example(e377,f11,negative).
example(e378,f1,positive).
example(e378,f2,negative).
example(e378,f3,negative).
example(e378,f4,positive).
example(e378,f5,negative).
example(e378,f6,positive).
example(e378,f7,negative).
example(e378,f8,negative).
example(e378,f9,negative).
example(e378,f10,positive).
example(e378,f11,positive).
example(e379,f1,positive).
example(e379,f2,negative).
example(e379,f3,negative).
example(e379,f4,positive).
example(e379,f5,negative).
example(e379,f6,negative).
example(e379,f7,positive).
example(e379,f8,negative).
example(e379,f9,negative).
example(e379,f10,negative).
example(e379,f11,negative).
example(e380,f1,positive).
example(e380,f2,negative).
example(e380,f3,negative).
example(e380,f4,positive).
example(e380,f5,negative).
example(e380,f6,negative).
example(e380,f7,positive).
example(e380,f8,negative).
example(e380,f9,negative).
example(e380,f10,negative).
example(e380,f11,positive).
example(e381,f1,positive).
example(e381,f2,negative).
example(e381,f3,negative).
example(e381,f4,positive).
example(e381,f5,negative).
example(e381,f6,negative).
example(e381,f7,positive).
example(e381,f8,positive).
example(e381,f9,negative).
example(e381,f10,negative).
example(e381,f11,negative).
example(e382,f1,positive).
example(e382,f2,negative).
example(e382,f3,negative).
example(e382,f4,positive).
example(e382,f5,negative).
example(e382,f6,negative).
example(e382,f7,positive).
example(e382,f8,positive).
example(e382,f9,negative).
example(e382,f10,negative).
example(e382,f11,positive).
example(e383,f1,positive).
example(e383,f2,negative).
example(e383,f3,negative).
example(e383,f4,positive).
example(e383,f5,negative).
example(e383,f6,negative).
example(e383,f7,positive).
example(e383,f8,negative).
example(e383,f9,positive).
example(e383,f10,negative).
example(e383,f11,negative).
example(e384,f1,positive).
example(e384,f2,negative).
example(e384,f3,negative).
example(e384,f4,positive).
example(e384,f5,negative).
example(e384,f6,negative).
example(e384,f7,positive).
example(e384,f8,negative).
example(e384,f9,positive).
example(e384,f10,negative).
example(e384,f11,positive).
example(e385,f1,positive).
example(e385,f2,negative).
example(e385,f3,negative).
example(e385,f4,positive).
example(e385,f5,negative).
example(e385,f6,negative).
example(e385,f7,positive).
example(e385,f8,negative).
example(e385,f9,negative).
example(e385,f10,positive).
example(e385,f11,negative).
example(e386,f1,positive).
example(e386,f2,negative).
example(e386,f3,negative).
example(e386,f4,positive).
example(e386,f5,negative).
example(e386,f6,negative).
example(e386,f7,positive).
example(e386,f8,negative).
example(e386,f9,negative).
example(e386,f10,positive).
example(e386,f11,positive).
example(e387,f1,positive).
example(e387,f2,negative).
example(e387,f3,negative).
example(e387,f4,positive).
example(e387,f5,positive).
example(e387,f6,negative).
example(e387,f7,negative).
example(e387,f8,negative).
example(e387,f9,negative).
example(e387,f10,negative).
example(e387,f11,negative).
example(e388,f1,positive).
example(e388,f2,negative).
example(e388,f3,negative).
example(e388,f4,positive).
example(e388,f5,positive).
example(e388,f6,negative).
example(e388,f7,negative).
example(e388,f8,negative).
example(e388,f9,negative).
example(e388,f10,negative).
example(e388,f11,positive).
example(e389,f1,positive).
example(e389,f2,negative).
example(e389,f3,negative).
example(e389,f4,positive).
example(e389,f5,positive).
example(e389,f6,negative).
example(e389,f7,negative).
example(e389,f8,positive).
example(e389,f9,negative).
example(e389,f10,negative).
example(e389,f11,negative).
example(e390,f1,positive).
example(e390,f2,negative).
example(e390,f3,negative).
example(e390,f4,positive).
example(e390,f5,positive).
example(e390,f6,negative).
example(e390,f7,negative).
example(e390,f8,positive).
example(e390,f9,negative).
example(e390,f10,negative).
example(e390,f11,positive).
example(e391,f1,positive).
example(e391,f2,negative).
example(e391,f3,negative).
example(e391,f4,positive).
example(e391,f5,positive).
example(e391,f6,negative).
example(e391,f7,negative).
example(e391,f8,negative).
example(e391,f9,positive).
example(e391,f10,negative).
example(e391,f11,negative).
example(e392,f1,positive).
example(e392,f2,negative).
example(e392,f3,negative).
example(e392,f4,positive).
example(e392,f5,positive).
example(e392,f6,negative).
example(e392,f7,negative).
example(e392,f8,negative).
example(e392,f9,positive).
example(e392,f10,negative).
example(e392,f11,positive).
example(e393,f1,positive).
example(e393,f2,negative).
example(e393,f3,negative).
example(e393,f4,positive).
example(e393,f5,positive).
example(e393,f6,negative).
example(e393,f7,negative).
example(e393,f8,negative).
example(e393,f9,negative).
example(e393,f10,positive).
example(e393,f11,negative).
example(e394,f1,positive).
example(e394,f2,negative).
example(e394,f3,negative).
example(e394,f4,positive).
example(e394,f5,positive).
example(e394,f6,negative).
example(e394,f7,negative).
example(e394,f8,negative).
example(e394,f9,negative).
example(e394,f10,positive).
example(e394,f11,positive).
example(e395,f1,positive).
example(e395,f2,negative).
example(e395,f3,negative).
example(e395,f4,positive).
example(e395,f5,positive).
example(e395,f6,positive).
example(e395,f7,negative).
example(e395,f8,negative).
example(e395,f9,negative).
example(e395,f10,negative).
example(e395,f11,negative).
example(e396,f1,positive).
example(e396,f2,negative).
example(e396,f3,negative).
example(e396,f4,positive).
example(e396,f5,positive).
example(e396,f6,positive).
example(e396,f7,negative).
example(e396,f8,negative).
example(e396,f9,negative).
example(e396,f10,negative).
example(e396,f11,positive).
example(e397,f1,positive).
example(e397,f2,negative).
example(e397,f3,negative).
example(e397,f4,positive).
example(e397,f5,positive).
example(e397,f6,positive).
example(e397,f7,negative).
example(e397,f8,positive).
example(e397,f9,negative).
example(e397,f10,negative).
example(e397,f11,negative).
example(e398,f1,positive).
example(e398,f2,negative).
example(e398,f3,negative).
example(e398,f4,positive).
example(e398,f5,positive).
example(e398,f6,positive).
example(e398,f7,negative).
example(e398,f8,positive).
example(e398,f9,negative).
example(e398,f10,negative).
example(e398,f11,positive).
example(e399,f1,positive).
example(e399,f2,negative).
example(e399,f3,negative).
example(e399,f4,positive).
example(e399,f5,positive).
example(e399,f6,positive).
example(e399,f7,negative).
example(e399,f8,negative).
example(e399,f9,positive).
example(e399,f10,negative).
example(e399,f11,negative).
example(e400,f1,positive).
example(e400,f2,negative).
example(e400,f3,negative).
example(e400,f4,positive).
example(e400,f5,positive).
example(e400,f6,positive).
example(e400,f7,negative).
example(e400,f8,negative).
example(e400,f9,positive).
example(e400,f10,negative).
example(e400,f11,positive).
example(e401,f1,positive).
example(e401,f2,negative).
example(e401,f3,negative).
example(e401,f4,positive).
example(e401,f5,positive).
example(e401,f6,positive).
example(e401,f7,negative).
example(e401,f8,negative).
example(e401,f9,negative).
example(e401,f10,positive).
example(e401,f11,negative).
example(e402,f1,positive).
example(e402,f2,negative).
example(e402,f3,negative).
example(e402,f4,positive).
example(e402,f5,positive).
example(e402,f6,positive).
example(e402,f7,negative).
example(e402,f8,negative).
example(e402,f9,negative).
example(e402,f10,positive).
example(e402,f11,positive).
example(e403,f1,positive).
example(e403,f2,negative).
example(e403,f3,negative).
example(e403,f4,positive).
example(e403,f5,positive).
example(e403,f6,negative).
example(e403,f7,positive).
example(e403,f8,negative).
example(e403,f9,negative).
example(e403,f10,negative).
example(e403,f11,negative).
example(e404,f1,positive).
example(e404,f2,negative).
example(e404,f3,negative).
example(e404,f4,positive).
example(e404,f5,positive).
example(e404,f6,negative).
example(e404,f7,positive).
example(e404,f8,negative).
example(e404,f9,negative).
example(e404,f10,negative).
example(e404,f11,positive).
example(e405,f1,positive).
example(e405,f2,negative).
example(e405,f3,negative).
example(e405,f4,positive).
example(e405,f5,positive).
example(e405,f6,negative).
example(e405,f7,positive).
example(e405,f8,positive).
example(e405,f9,negative).
example(e405,f10,negative).
example(e405,f11,negative).
example(e406,f1,positive).
example(e406,f2,negative).
example(e406,f3,negative).
example(e406,f4,positive).
example(e406,f5,positive).
example(e406,f6,negative).
example(e406,f7,positive).
example(e406,f8,positive).
example(e406,f9,negative).
example(e406,f10,negative).
example(e406,f11,positive).
example(e407,f1,positive).
example(e407,f2,negative).
example(e407,f3,negative).
example(e407,f4,positive).
example(e407,f5,positive).
example(e407,f6,negative).
example(e407,f7,positive).
example(e407,f8,negative).
example(e407,f9,positive).
example(e407,f10,negative).
example(e407,f11,negative).
example(e408,f1,positive).
example(e408,f2,negative).
example(e408,f3,negative).
example(e408,f4,positive).
example(e408,f5,positive).
example(e408,f6,negative).
example(e408,f7,positive).
example(e408,f8,negative).
example(e408,f9,positive).
example(e408,f10,negative).
example(e408,f11,positive).
example(e409,f1,positive).
example(e409,f2,negative).
example(e409,f3,negative).
example(e409,f4,positive).
example(e409,f5,positive).
example(e409,f6,negative).
example(e409,f7,positive).
example(e409,f8,negative).
example(e409,f9,negative).
example(e409,f10,positive).
example(e409,f11,negative).
example(e410,f1,positive).
example(e410,f2,negative).
example(e410,f3,negative).
example(e410,f4,positive).
example(e410,f5,positive).
example(e410,f6,negative).
example(e410,f7,positive).
example(e410,f8,negative).
example(e410,f9,negative).
example(e410,f10,positive).
example(e410,f11,positive).
example(e411,f1,negative).
example(e411,f2,positive).
example(e411,f3,negative).
example(e411,f4,negative).
example(e411,f5,negative).
example(e411,f6,negative).
example(e411,f7,negative).
example(e411,f8,negative).
example(e411,f9,negative).
example(e411,f10,negative).
example(e411,f11,negative).
example(e412,f1,negative).
example(e412,f2,positive).
example(e412,f3,negative).
example(e412,f4,negative).
example(e412,f5,negative).
example(e412,f6,negative).
example(e412,f7,negative).
example(e412,f8,negative).
example(e412,f9,negative).
example(e412,f10,negative).
example(e412,f11,positive).
example(e413,f1,negative).
example(e413,f2,positive).
example(e413,f3,negative).
example(e413,f4,negative).
example(e413,f5,negative).
example(e413,f6,negative).
example(e413,f7,negative).
example(e413,f8,positive).
example(e413,f9,negative).
example(e413,f10,negative).
example(e413,f11,negative).
example(e414,f1,negative).
example(e414,f2,positive).
example(e414,f3,negative).
example(e414,f4,negative).
example(e414,f5,negative).
example(e414,f6,negative).
example(e414,f7,negative).
example(e414,f8,positive).
example(e414,f9,negative).
example(e414,f10,negative).
example(e414,f11,positive).
example(e415,f1,negative).
example(e415,f2,positive).
example(e415,f3,negative).
example(e415,f4,negative).
example(e415,f5,negative).
example(e415,f6,negative).
example(e415,f7,negative).
example(e415,f8,negative).
example(e415,f9,positive).
example(e415,f10,negative).
example(e415,f11,negative).
example(e416,f1,negative).
example(e416,f2,positive).
example(e416,f3,negative).
example(e416,f4,negative).
example(e416,f5,negative).
example(e416,f6,negative).
example(e416,f7,negative).
example(e416,f8,negative).
example(e416,f9,positive).
example(e416,f10,negative).
example(e416,f11,positive).
example(e417,f1,negative).
example(e417,f2,positive).
example(e417,f3,negative).
example(e417,f4,negative).
example(e417,f5,negative).
example(e417,f6,negative).
example(e417,f7,negative).
example(e417,f8,negative).
example(e417,f9,negative).
example(e417,f10,positive).
example(e417,f11,negative).
example(e418,f1,negative).
example(e418,f2,positive).
example(e418,f3,negative).
example(e418,f4,negative).
example(e418,f5,negative).
example(e418,f6,negative).
example(e418,f7,negative).
example(e418,f8,negative).
example(e418,f9,negative).
example(e418,f10,positive).
example(e418,f11,positive).
example(e419,f1,negative).
example(e419,f2,positive).
example(e419,f3,negative).
example(e419,f4,negative).
example(e419,f5,negative).
example(e419,f6,positive).
example(e419,f7,negative).
example(e419,f8,negative).
example(e419,f9,negative).
example(e419,f10,negative).
example(e419,f11,negative).
example(e420,f1,negative).
example(e420,f2,positive).
example(e420,f3,negative).
example(e420,f4,negative).
example(e420,f5,negative).
example(e420,f6,positive).
example(e420,f7,negative).
example(e420,f8,negative).
example(e420,f9,negative).
example(e420,f10,negative).
example(e420,f11,positive).
example(e421,f1,negative).
example(e421,f2,positive).
example(e421,f3,negative).
example(e421,f4,negative).
example(e421,f5,negative).
example(e421,f6,positive).
example(e421,f7,negative).
example(e421,f8,positive).
example(e421,f9,negative).
example(e421,f10,negative).
example(e421,f11,negative).
example(e422,f1,negative).
example(e422,f2,positive).
example(e422,f3,negative).
example(e422,f4,negative).
example(e422,f5,negative).
example(e422,f6,positive).
example(e422,f7,negative).
example(e422,f8,positive).
example(e422,f9,negative).
example(e422,f10,negative).
example(e422,f11,positive).
example(e423,f1,negative).
example(e423,f2,positive).
example(e423,f3,negative).
example(e423,f4,negative).
example(e423,f5,negative).
example(e423,f6,positive).
example(e423,f7,negative).
example(e423,f8,negative).
example(e423,f9,positive).
example(e423,f10,negative).
example(e423,f11,negative).
example(e424,f1,negative).
example(e424,f2,positive).
example(e424,f3,negative).
example(e424,f4,negative).
example(e424,f5,negative).
example(e424,f6,positive).
example(e424,f7,negative).
example(e424,f8,negative).
example(e424,f9,positive).
example(e424,f10,negative).
example(e424,f11,positive).
example(e425,f1,negative).
example(e425,f2,positive).
example(e425,f3,negative).
example(e425,f4,negative).
example(e425,f5,negative).
example(e425,f6,positive).
example(e425,f7,negative).
example(e425,f8,negative).
example(e425,f9,negative).
example(e425,f10,positive).
example(e425,f11,negative).
example(e426,f1,negative).
example(e426,f2,positive).
example(e426,f3,negative).
example(e426,f4,negative).
example(e426,f5,negative).
example(e426,f6,positive).
example(e426,f7,negative).
example(e426,f8,negative).
example(e426,f9,negative).
example(e426,f10,positive).
example(e426,f11,positive).
example(e427,f1,negative).
example(e427,f2,positive).
example(e427,f3,negative).
example(e427,f4,negative).
example(e427,f5,negative).
example(e427,f6,negative).
example(e427,f7,positive).
example(e427,f8,negative).
example(e427,f9,negative).
example(e427,f10,negative).
example(e427,f11,negative).
example(e428,f1,negative).
example(e428,f2,positive).
example(e428,f3,negative).
example(e428,f4,negative).
example(e428,f5,negative).
example(e428,f6,negative).
example(e428,f7,positive).
example(e428,f8,negative).
example(e428,f9,negative).
example(e428,f10,negative).
example(e428,f11,positive).
example(e429,f1,negative).
example(e429,f2,positive).
example(e429,f3,negative).
example(e429,f4,negative).
example(e429,f5,negative).
example(e429,f6,negative).
example(e429,f7,positive).
example(e429,f8,positive).
example(e429,f9,negative).
example(e429,f10,negative).
example(e429,f11,negative).
example(e430,f1,negative).
example(e430,f2,positive).
example(e430,f3,negative).
example(e430,f4,negative).
example(e430,f5,negative).
example(e430,f6,negative).
example(e430,f7,positive).
example(e430,f8,positive).
example(e430,f9,negative).
example(e430,f10,negative).
example(e430,f11,positive).
example(e431,f1,negative).
example(e431,f2,positive).
example(e431,f3,negative).
example(e431,f4,negative).
example(e431,f5,negative).
example(e431,f6,negative).
example(e431,f7,positive).
example(e431,f8,negative).
example(e431,f9,positive).
example(e431,f10,negative).
example(e431,f11,negative).
example(e432,f1,negative).
example(e432,f2,positive).
example(e432,f3,negative).
example(e432,f4,negative).
example(e432,f5,negative).
example(e432,f6,negative).
example(e432,f7,positive).
example(e432,f8,negative).
example(e432,f9,positive).
example(e432,f10,negative).
example(e432,f11,positive).
example(e433,f1,negative).
example(e433,f2,positive).
example(e433,f3,negative).
example(e433,f4,negative).
example(e433,f5,negative).
example(e433,f6,negative).
example(e433,f7,positive).
example(e433,f8,negative).
example(e433,f9,negative).
example(e433,f10,positive).
example(e433,f11,negative).
example(e434,f1,negative).
example(e434,f2,positive).
example(e434,f3,negative).
example(e434,f4,negative).
example(e434,f5,negative).
example(e434,f6,negative).
example(e434,f7,positive).
example(e434,f8,negative).
example(e434,f9,negative).
example(e434,f10,positive).
example(e434,f11,positive).
example(e435,f1,negative).
example(e435,f2,positive).
example(e435,f3,negative).
example(e435,f4,negative).
example(e435,f5,positive).
example(e435,f6,negative).
example(e435,f7,negative).
example(e435,f8,negative).
example(e435,f9,negative).
example(e435,f10,negative).
example(e435,f11,negative).
example(e436,f1,negative).
example(e436,f2,positive).
example(e436,f3,negative).
example(e436,f4,negative).
example(e436,f5,positive).
example(e436,f6,negative).
example(e436,f7,negative).
example(e436,f8,negative).
example(e436,f9,negative).
example(e436,f10,negative).
example(e436,f11,positive).
example(e437,f1,negative).
example(e437,f2,positive).
example(e437,f3,negative).
example(e437,f4,negative).
example(e437,f5,positive).
example(e437,f6,negative).
example(e437,f7,negative).
example(e437,f8,positive).
example(e437,f9,negative).
example(e437,f10,negative).
example(e437,f11,negative).
example(e438,f1,negative).
example(e438,f2,positive).
example(e438,f3,negative).
example(e438,f4,negative).
example(e438,f5,positive).
example(e438,f6,negative).
example(e438,f7,negative).
example(e438,f8,positive).
example(e438,f9,negative).
example(e438,f10,negative).
example(e438,f11,positive).
example(e439,f1,negative).
example(e439,f2,positive).
example(e439,f3,negative).
example(e439,f4,negative).
example(e439,f5,positive).
example(e439,f6,negative).
example(e439,f7,negative).
example(e439,f8,negative).
example(e439,f9,positive).
example(e439,f10,negative).
example(e439,f11,negative).
example(e440,f1,negative).
example(e440,f2,positive).
example(e440,f3,negative).
example(e440,f4,negative).
example(e440,f5,positive).
example(e440,f6,negative).
example(e440,f7,negative).
example(e440,f8,negative).
example(e440,f9,positive).
example(e440,f10,negative).
example(e440,f11,positive).
example(e441,f1,negative).
example(e441,f2,positive).
example(e441,f3,negative).
example(e441,f4,negative).
example(e441,f5,positive).
example(e441,f6,negative).
example(e441,f7,negative).
example(e441,f8,negative).
example(e441,f9,negative).
example(e441,f10,positive).
example(e441,f11,negative).
example(e442,f1,negative).
example(e442,f2,positive).
example(e442,f3,negative).
example(e442,f4,negative).
example(e442,f5,positive).
example(e442,f6,negative).
example(e442,f7,negative).
example(e442,f8,negative).
example(e442,f9,negative).
example(e442,f10,positive).
example(e442,f11,positive).
example(e443,f1,negative).
example(e443,f2,positive).
example(e443,f3,negative).
example(e443,f4,negative).
example(e443,f5,positive).
example(e443,f6,positive).
example(e443,f7,negative).
example(e443,f8,negative).
example(e443,f9,negative).
example(e443,f10,negative).
example(e443,f11,negative).
example(e444,f1,negative).
example(e444,f2,positive).
example(e444,f3,negative).
example(e444,f4,negative).
example(e444,f5,positive).
example(e444,f6,positive).
example(e444,f7,negative).
example(e444,f8,negative).
example(e444,f9,negative).
example(e444,f10,negative).
example(e444,f11,positive).
example(e445,f1,negative).
example(e445,f2,positive).
example(e445,f3,negative).
example(e445,f4,negative).
example(e445,f5,positive).
example(e445,f6,positive).
example(e445,f7,negative).
example(e445,f8,positive).
example(e445,f9,negative).
example(e445,f10,negative).
example(e445,f11,negative).
example(e446,f1,negative).
example(e446,f2,positive).
example(e446,f3,negative).
example(e446,f4,negative).
example(e446,f5,positive).
example(e446,f6,positive).
example(e446,f7,negative).
example(e446,f8,positive).
example(e446,f9,negative).
example(e446,f10,negative).
example(e446,f11,positive).
example(e447,f1,negative).
example(e447,f2,positive).
example(e447,f3,negative).
example(e447,f4,negative).
example(e447,f5,positive).
example(e447,f6,positive).
example(e447,f7,negative).
example(e447,f8,negative).
example(e447,f9,positive).
example(e447,f10,negative).
example(e447,f11,negative).
example(e448,f1,negative).
example(e448,f2,positive).
example(e448,f3,negative).
example(e448,f4,negative).
example(e448,f5,positive).
example(e448,f6,positive).
example(e448,f7,negative).
example(e448,f8,negative).
example(e448,f9,positive).
example(e448,f10,negative).
example(e448,f11,positive).
example(e449,f1,negative).
example(e449,f2,positive).
example(e449,f3,negative).
example(e449,f4,negative).
example(e449,f5,positive).
example(e449,f6,positive).
example(e449,f7,negative).
example(e449,f8,negative).
example(e449,f9,negative).
example(e449,f10,positive).
example(e449,f11,negative).
example(e450,f1,negative).
example(e450,f2,positive).
example(e450,f3,negative).
example(e450,f4,negative).
example(e450,f5,positive).
example(e450,f6,positive).
example(e450,f7,negative).
example(e450,f8,negative).
example(e450,f9,negative).
example(e450,f10,positive).
example(e450,f11,positive).
example(e451,f1,negative).
example(e451,f2,positive).
example(e451,f3,negative).
example(e451,f4,negative).
example(e451,f5,positive).
example(e451,f6,negative).
example(e451,f7,positive).
example(e451,f8,negative).
example(e451,f9,negative).
example(e451,f10,negative).
example(e451,f11,negative).
example(e452,f1,negative).
example(e452,f2,positive).
example(e452,f3,negative).
example(e452,f4,negative).
example(e452,f5,positive).
example(e452,f6,negative).
example(e452,f7,positive).
example(e452,f8,negative).
example(e452,f9,negative).
example(e452,f10,negative).
example(e452,f11,positive).
example(e453,f1,negative).
example(e453,f2,positive).
example(e453,f3,negative).
example(e453,f4,negative).
example(e453,f5,positive).
example(e453,f6,negative).
example(e453,f7,positive).
example(e453,f8,positive).
example(e453,f9,negative).
example(e453,f10,negative).
example(e453,f11,negative).
example(e454,f1,negative).
example(e454,f2,positive).
example(e454,f3,negative).
example(e454,f4,negative).
example(e454,f5,positive).
example(e454,f6,negative).
example(e454,f7,positive).
example(e454,f8,positive).
example(e454,f9,negative).
example(e454,f10,negative).
example(e454,f11,positive).
example(e455,f1,negative).
example(e455,f2,positive).
example(e455,f3,negative).
example(e455,f4,negative).
example(e455,f5,positive).
example(e455,f6,negative).
example(e455,f7,positive).
example(e455,f8,negative).
example(e455,f9,positive).
example(e455,f10,negative).
example(e455,f11,negative).
example(e456,f1,negative).
example(e456,f2,positive).
example(e456,f3,negative).
example(e456,f4,negative).
example(e456,f5,positive).
example(e456,f6,negative).
example(e456,f7,positive).
example(e456,f8,negative).
example(e456,f9,positive).
example(e456,f10,negative).
example(e456,f11,positive).
example(e457,f1,negative).
example(e457,f2,positive).
example(e457,f3,negative).
example(e457,f4,negative).
example(e457,f5,positive).
example(e457,f6,negative).
example(e457,f7,positive).
example(e457,f8,negative).
example(e457,f9,negative).
example(e457,f10,positive).
example(e457,f11,negative).
example(e458,f1,negative).
example(e458,f2,positive).
example(e458,f3,negative).
example(e458,f4,negative).
example(e458,f5,positive).
example(e458,f6,negative).
example(e458,f7,positive).
example(e458,f8,negative).
example(e458,f9,negative).
example(e458,f10,positive).
example(e458,f11,positive).
example(e459,f1,negative).
example(e459,f2,positive).
example(e459,f3,positive).
example(e459,f4,negative).
example(e459,f5,negative).
example(e459,f6,negative).
example(e459,f7,negative).
example(e459,f8,negative).
example(e459,f9,negative).
example(e459,f10,negative).
example(e459,f11,negative).
example(e460,f1,negative).
example(e460,f2,positive).
example(e460,f3,positive).
example(e460,f4,negative).
example(e460,f5,negative).
example(e460,f6,negative).
example(e460,f7,negative).
example(e460,f8,negative).
example(e460,f9,negative).
example(e460,f10,negative).
example(e460,f11,positive).
example(e461,f1,negative).
example(e461,f2,positive).
example(e461,f3,positive).
example(e461,f4,negative).
example(e461,f5,negative).
example(e461,f6,negative).
example(e461,f7,negative).
example(e461,f8,positive).
example(e461,f9,negative).
example(e461,f10,negative).
example(e461,f11,negative).
example(e462,f1,negative).
example(e462,f2,positive).
example(e462,f3,positive).
example(e462,f4,negative).
example(e462,f5,negative).
example(e462,f6,negative).
example(e462,f7,negative).
example(e462,f8,positive).
example(e462,f9,negative).
example(e462,f10,negative).
example(e462,f11,positive).
example(e463,f1,negative).
example(e463,f2,positive).
example(e463,f3,positive).
example(e463,f4,negative).
example(e463,f5,negative).
example(e463,f6,negative).
example(e463,f7,negative).
example(e463,f8,negative).
example(e463,f9,positive).
example(e463,f10,negative).
example(e463,f11,negative).
example(e464,f1,negative).
example(e464,f2,positive).
example(e464,f3,positive).
example(e464,f4,negative).
example(e464,f5,negative).
example(e464,f6,negative).
example(e464,f7,negative).
example(e464,f8,negative).
example(e464,f9,positive).
example(e464,f10,negative).
example(e464,f11,positive).
example(e465,f1,negative).
example(e465,f2,positive).
example(e465,f3,positive).
example(e465,f4,negative).
example(e465,f5,negative).
example(e465,f6,negative).
example(e465,f7,negative).
example(e465,f8,negative).
example(e465,f9,negative).
example(e465,f10,positive).
example(e465,f11,negative).
example(e466,f1,negative).
example(e466,f2,positive).
example(e466,f3,positive).
example(e466,f4,negative).
example(e466,f5,negative).
example(e466,f6,negative).
example(e466,f7,negative).
example(e466,f8,negative).
example(e466,f9,negative).
example(e466,f10,positive).
example(e466,f11,positive).
example(e467,f1,negative).
example(e467,f2,positive).
example(e467,f3,positive).
example(e467,f4,negative).
example(e467,f5,negative).
example(e467,f6,positive).
example(e467,f7,negative).
example(e467,f8,negative).
example(e467,f9,negative).
example(e467,f10,negative).
example(e467,f11,negative).
example(e468,f1,negative).
example(e468,f2,positive).
example(e468,f3,positive).
example(e468,f4,negative).
example(e468,f5,negative).
example(e468,f6,positive).
example(e468,f7,negative).
example(e468,f8,negative).
example(e468,f9,negative).
example(e468,f10,negative).
example(e468,f11,positive).
example(e469,f1,negative).
example(e469,f2,positive).
example(e469,f3,positive).
example(e469,f4,negative).
example(e469,f5,negative).
example(e469,f6,positive).
example(e469,f7,negative).
example(e469,f8,positive).
example(e469,f9,negative).
example(e469,f10,negative).
example(e469,f11,negative).
example(e470,f1,negative).
example(e470,f2,positive).
example(e470,f3,positive).
example(e470,f4,negative).
example(e470,f5,negative).
example(e470,f6,positive).
example(e470,f7,negative).
example(e470,f8,positive).
example(e470,f9,negative).
example(e470,f10,negative).
example(e470,f11,positive).
example(e471,f1,negative).
example(e471,f2,positive).
example(e471,f3,positive).
example(e471,f4,negative).
example(e471,f5,negative).
example(e471,f6,positive).
example(e471,f7,negative).
example(e471,f8,negative).
example(e471,f9,positive).
example(e471,f10,negative).
example(e471,f11,negative).
example(e472,f1,negative).
example(e472,f2,positive).
example(e472,f3,positive).
example(e472,f4,negative).
example(e472,f5,negative).
example(e472,f6,positive).
example(e472,f7,negative).
example(e472,f8,negative).
example(e472,f9,positive).
example(e472,f10,negative).
example(e472,f11,positive).
example(e473,f1,negative).
example(e473,f2,positive).
example(e473,f3,positive).
example(e473,f4,negative).
example(e473,f5,negative).
example(e473,f6,positive).
example(e473,f7,negative).
example(e473,f8,negative).
example(e473,f9,negative).
example(e473,f10,positive).
example(e473,f11,negative).
example(e474,f1,negative).
example(e474,f2,positive).
example(e474,f3,positive).
example(e474,f4,negative).
example(e474,f5,negative).
example(e474,f6,positive).
example(e474,f7,negative).
example(e474,f8,negative).
example(e474,f9,negative).
example(e474,f10,positive).
example(e474,f11,positive).
example(e475,f1,negative).
example(e475,f2,positive).
example(e475,f3,positive).
example(e475,f4,negative).
example(e475,f5,negative).
example(e475,f6,negative).
example(e475,f7,positive).
example(e475,f8,negative).
example(e475,f9,negative).
example(e475,f10,negative).
example(e475,f11,negative).
example(e476,f1,negative).
example(e476,f2,positive).
example(e476,f3,positive).
example(e476,f4,negative).
example(e476,f5,negative).
example(e476,f6,negative).
example(e476,f7,positive).
example(e476,f8,negative).
example(e476,f9,negative).
example(e476,f10,negative).
example(e476,f11,positive).
example(e477,f1,negative).
example(e477,f2,positive).
example(e477,f3,positive).
example(e477,f4,negative).
example(e477,f5,negative).
example(e477,f6,negative).
example(e477,f7,positive).
example(e477,f8,positive).
example(e477,f9,negative).
example(e477,f10,negative).
example(e477,f11,negative).
example(e478,f1,negative).
example(e478,f2,positive).
example(e478,f3,positive).
example(e478,f4,negative).
example(e478,f5,negative).
example(e478,f6,negative).
example(e478,f7,positive).
example(e478,f8,positive).
example(e478,f9,negative).
example(e478,f10,negative).
example(e478,f11,positive).
example(e479,f1,negative).
example(e479,f2,positive).
example(e479,f3,positive).
example(e479,f4,negative).
example(e479,f5,negative).
example(e479,f6,negative).
example(e479,f7,positive).
example(e479,f8,negative).
example(e479,f9,positive).
example(e479,f10,negative).
example(e479,f11,negative).
example(e480,f1,negative).
example(e480,f2,positive).
example(e480,f3,positive).
example(e480,f4,negative).
example(e480,f5,negative).
example(e480,f6,negative).
example(e480,f7,positive).
example(e480,f8,negative).
example(e480,f9,positive).
example(e480,f10,negative).
example(e480,f11,positive).
example(e481,f1,negative).
example(e481,f2,positive).
example(e481,f3,positive).
example(e481,f4,negative).
example(e481,f5,negative).
example(e481,f6,negative).
example(e481,f7,positive).
example(e481,f8,negative).
example(e481,f9,negative).
example(e481,f10,positive).
example(e481,f11,negative).
example(e482,f1,negative).
example(e482,f2,positive).
example(e482,f3,positive).
example(e482,f4,negative).
example(e482,f5,negative).
example(e482,f6,negative).
example(e482,f7,positive).
example(e482,f8,negative).
example(e482,f9,negative).
example(e482,f10,positive).
example(e482,f11,positive).
example(e483,f1,negative).
example(e483,f2,positive).
example(e483,f3,positive).
example(e483,f4,negative).
example(e483,f5,positive).
example(e483,f6,negative).
example(e483,f7,negative).
example(e483,f8,negative).
example(e483,f9,negative).
example(e483,f10,negative).
example(e483,f11,negative).
example(e484,f1,negative).
example(e484,f2,positive).
example(e484,f3,positive).
example(e484,f4,negative).
example(e484,f5,positive).
example(e484,f6,negative).
example(e484,f7,negative).
example(e484,f8,negative).
example(e484,f9,negative).
example(e484,f10,negative).
example(e484,f11,positive).
example(e485,f1,negative).
example(e485,f2,positive).
example(e485,f3,positive).
example(e485,f4,negative).
example(e485,f5,positive).
example(e485,f6,negative).
example(e485,f7,negative).
example(e485,f8,positive).
example(e485,f9,negative).
example(e485,f10,negative).
example(e485,f11,negative).
example(e486,f1,negative).
example(e486,f2,positive).
example(e486,f3,positive).
example(e486,f4,negative).
example(e486,f5,positive).
example(e486,f6,negative).
example(e486,f7,negative).
example(e486,f8,positive).
example(e486,f9,negative).
example(e486,f10,negative).
example(e486,f11,positive).
example(e487,f1,negative).
example(e487,f2,positive).
example(e487,f3,positive).
example(e487,f4,negative).
example(e487,f5,positive).
example(e487,f6,negative).
example(e487,f7,negative).
example(e487,f8,negative).
example(e487,f9,positive).
example(e487,f10,negative).
example(e487,f11,negative).
example(e488,f1,negative).
example(e488,f2,positive).
example(e488,f3,positive).
example(e488,f4,negative).
example(e488,f5,positive).
example(e488,f6,negative).
example(e488,f7,negative).
example(e488,f8,negative).
example(e488,f9,positive).
example(e488,f10,negative).
example(e488,f11,positive).
example(e489,f1,negative).
example(e489,f2,positive).
example(e489,f3,positive).
example(e489,f4,negative).
example(e489,f5,positive).
example(e489,f6,negative).
example(e489,f7,negative).
example(e489,f8,negative).
example(e489,f9,negative).
example(e489,f10,positive).
example(e489,f11,negative).
example(e490,f1,negative).
example(e490,f2,positive).
example(e490,f3,positive).
example(e490,f4,negative).
example(e490,f5,positive).
example(e490,f6,negative).
example(e490,f7,negative).
example(e490,f8,negative).
example(e490,f9,negative).
example(e490,f10,positive).
example(e490,f11,positive).
example(e491,f1,negative).
example(e491,f2,positive).
example(e491,f3,positive).
example(e491,f4,negative).
example(e491,f5,positive).
example(e491,f6,positive).
example(e491,f7,negative).
example(e491,f8,negative).
example(e491,f9,negative).
example(e491,f10,negative).
example(e491,f11,negative).
example(e492,f1,negative).
example(e492,f2,positive).
example(e492,f3,positive).
example(e492,f4,negative).
example(e492,f5,positive).
example(e492,f6,positive).
example(e492,f7,negative).
example(e492,f8,negative).
example(e492,f9,negative).
example(e492,f10,negative).
example(e492,f11,positive).
example(e493,f1,negative).
example(e493,f2,positive).
example(e493,f3,positive).
example(e493,f4,negative).
example(e493,f5,positive).
example(e493,f6,positive).
example(e493,f7,negative).
example(e493,f8,positive).
example(e493,f9,negative).
example(e493,f10,negative).
example(e493,f11,negative).
example(e494,f1,negative).
example(e494,f2,positive).
example(e494,f3,positive).
example(e494,f4,negative).
example(e494,f5,positive).
example(e494,f6,positive).
example(e494,f7,negative).
example(e494,f8,positive).
example(e494,f9,negative).
example(e494,f10,negative).
example(e494,f11,positive).
example(e495,f1,negative).
example(e495,f2,positive).
example(e495,f3,positive).
example(e495,f4,negative).
example(e495,f5,positive).
example(e495,f6,positive).
example(e495,f7,negative).
example(e495,f8,negative).
example(e495,f9,positive).
example(e495,f10,negative).
example(e495,f11,negative).
example(e496,f1,negative).
example(e496,f2,positive).
example(e496,f3,positive).
example(e496,f4,negative).
example(e496,f5,positive).
example(e496,f6,positive).
example(e496,f7,negative).
example(e496,f8,negative).
example(e496,f9,positive).
example(e496,f10,negative).
example(e496,f11,positive).
example(e497,f1,negative).
example(e497,f2,positive).
example(e497,f3,positive).
example(e497,f4,negative).
example(e497,f5,positive).
example(e497,f6,positive).
example(e497,f7,negative).
example(e497,f8,negative).
example(e497,f9,negative).
example(e497,f10,positive).
example(e497,f11,negative).
example(e498,f1,negative).
example(e498,f2,positive).
example(e498,f3,positive).
example(e498,f4,negative).
example(e498,f5,positive).
example(e498,f6,positive).
example(e498,f7,negative).
example(e498,f8,negative).
example(e498,f9,negative).
example(e498,f10,positive).
example(e498,f11,positive).
example(e499,f1,negative).
example(e499,f2,positive).
example(e499,f3,positive).
example(e499,f4,negative).
example(e499,f5,positive).
example(e499,f6,negative).
example(e499,f7,positive).
example(e499,f8,negative).
example(e499,f9,negative).
example(e499,f10,negative).
example(e499,f11,negative).
example(e500,f1,negative).
example(e500,f2,positive).
example(e500,f3,positive).
example(e500,f4,negative).
example(e500,f5,positive).
example(e500,f6,negative).
example(e500,f7,positive).
example(e500,f8,negative).
example(e500,f9,negative).
example(e500,f10,negative).
example(e500,f11,positive).
example(e501,f1,negative).
example(e501,f2,positive).
example(e501,f3,positive).
example(e501,f4,negative).
example(e501,f5,positive).
example(e501,f6,negative).
example(e501,f7,positive).
example(e501,f8,positive).
example(e501,f9,negative).
example(e501,f10,negative).
example(e501,f11,negative).
example(e502,f1,negative).
example(e502,f2,positive).
example(e502,f3,positive).
example(e502,f4,negative).
example(e502,f5,positive).
example(e502,f6,negative).
example(e502,f7,positive).
example(e502,f8,positive).
example(e502,f9,negative).
example(e502,f10,negative).
example(e502,f11,positive).
example(e503,f1,negative).
example(e503,f2,positive).
example(e503,f3,positive).
example(e503,f4,negative).
example(e503,f5,positive).
example(e503,f6,negative).
example(e503,f7,positive).
example(e503,f8,negative).
example(e503,f9,positive).
example(e503,f10,negative).
example(e503,f11,negative).
example(e504,f1,negative).
example(e504,f2,positive).
example(e504,f3,positive).
example(e504,f4,negative).
example(e504,f5,positive).
example(e504,f6,negative).
example(e504,f7,positive).
example(e504,f8,negative).
example(e504,f9,positive).
example(e504,f10,negative).
example(e504,f11,positive).
example(e505,f1,negative).
example(e505,f2,positive).
example(e505,f3,positive).
example(e505,f4,negative).
example(e505,f5,positive).
example(e505,f6,negative).
example(e505,f7,positive).
example(e505,f8,negative).
example(e505,f9,negative).
example(e505,f10,positive).
example(e505,f11,negative).
example(e506,f1,negative).
example(e506,f2,positive).
example(e506,f3,positive).
example(e506,f4,negative).
example(e506,f5,positive).
example(e506,f6,negative).
example(e506,f7,positive).
example(e506,f8,negative).
example(e506,f9,negative).
example(e506,f10,positive).
example(e506,f11,positive).
example(e507,f1,negative).
example(e507,f2,positive).
example(e507,f3,negative).
example(e507,f4,positive).
example(e507,f5,negative).
example(e507,f6,negative).
example(e507,f7,negative).
example(e507,f8,negative).
example(e507,f9,negative).
example(e507,f10,negative).
example(e507,f11,negative).
example(e508,f1,negative).
example(e508,f2,positive).
example(e508,f3,negative).
example(e508,f4,positive).
example(e508,f5,negative).
example(e508,f6,negative).
example(e508,f7,negative).
example(e508,f8,negative).
example(e508,f9,negative).
example(e508,f10,negative).
example(e508,f11,positive).
example(e509,f1,negative).
example(e509,f2,positive).
example(e509,f3,negative).
example(e509,f4,positive).
example(e509,f5,negative).
example(e509,f6,negative).
example(e509,f7,negative).
example(e509,f8,positive).
example(e509,f9,negative).
example(e509,f10,negative).
example(e509,f11,negative).
example(e510,f1,negative).
example(e510,f2,positive).
example(e510,f3,negative).
example(e510,f4,positive).
example(e510,f5,negative).
example(e510,f6,negative).
example(e510,f7,negative).
example(e510,f8,positive).
example(e510,f9,negative).
example(e510,f10,negative).
example(e510,f11,positive).
example(e511,f1,negative).
example(e511,f2,positive).
example(e511,f3,negative).
example(e511,f4,positive).
example(e511,f5,negative).
example(e511,f6,negative).
example(e511,f7,negative).
example(e511,f8,negative).
example(e511,f9,positive).
example(e511,f10,negative).
example(e511,f11,negative).
example(e512,f1,negative).
example(e512,f2,positive).
example(e512,f3,negative).
example(e512,f4,positive).
example(e512,f5,negative).
example(e512,f6,negative).
example(e512,f7,negative).
example(e512,f8,negative).
example(e512,f9,positive).
example(e512,f10,negative).
example(e512,f11,positive).
example(e513,f1,negative).
example(e513,f2,positive).
example(e513,f3,negative).
example(e513,f4,positive).
example(e513,f5,negative).
example(e513,f6,negative).
example(e513,f7,negative).
example(e513,f8,negative).
example(e513,f9,negative).
example(e513,f10,positive).
example(e513,f11,negative).
example(e514,f1,negative).
example(e514,f2,positive).
example(e514,f3,negative).
example(e514,f4,positive).
example(e514,f5,negative).
example(e514,f6,negative).
example(e514,f7,negative).
example(e514,f8,negative).
example(e514,f9,negative).
example(e514,f10,positive).
example(e514,f11,positive).
example(e515,f1,negative).
example(e515,f2,positive).
example(e515,f3,negative).
example(e515,f4,positive).
example(e515,f5,negative).
example(e515,f6,positive).
example(e515,f7,negative).
example(e515,f8,negative).
example(e515,f9,negative).
example(e515,f10,negative).
example(e515,f11,negative).
example(e516,f1,negative).
example(e516,f2,positive).
example(e516,f3,negative).
example(e516,f4,positive).
example(e516,f5,negative).
example(e516,f6,positive).
example(e516,f7,negative).
example(e516,f8,negative).
example(e516,f9,negative).
example(e516,f10,negative).
example(e516,f11,positive).
example(e517,f1,negative).
example(e517,f2,positive).
example(e517,f3,negative).
example(e517,f4,positive).
example(e517,f5,negative).
example(e517,f6,positive).
example(e517,f7,negative).
example(e517,f8,positive).
example(e517,f9,negative).
example(e517,f10,negative).
example(e517,f11,negative).
example(e518,f1,negative).
example(e518,f2,positive).
example(e518,f3,negative).
example(e518,f4,positive).
example(e518,f5,negative).
example(e518,f6,positive).
example(e518,f7,negative).
example(e518,f8,positive).
example(e518,f9,negative).
example(e518,f10,negative).
example(e518,f11,positive).
example(e519,f1,negative).
example(e519,f2,positive).
example(e519,f3,negative).
example(e519,f4,positive).
example(e519,f5,negative).
example(e519,f6,positive).
example(e519,f7,negative).
example(e519,f8,negative).
example(e519,f9,positive).
example(e519,f10,negative).
example(e519,f11,negative).
example(e520,f1,negative).
example(e520,f2,positive).
example(e520,f3,negative).
example(e520,f4,positive).
example(e520,f5,negative).
example(e520,f6,positive).
example(e520,f7,negative).
example(e520,f8,negative).
example(e520,f9,positive).
example(e520,f10,negative).
example(e520,f11,positive).
example(e521,f1,negative).
example(e521,f2,positive).
example(e521,f3,negative).
example(e521,f4,positive).
example(e521,f5,negative).
example(e521,f6,positive).
example(e521,f7,negative).
example(e521,f8,negative).
example(e521,f9,negative).
example(e521,f10,positive).
example(e521,f11,negative).
example(e522,f1,negative).
example(e522,f2,positive).
example(e522,f3,negative).
example(e522,f4,positive).
example(e522,f5,negative).
example(e522,f6,positive).
example(e522,f7,negative).
example(e522,f8,negative).
example(e522,f9,negative).
example(e522,f10,positive).
example(e522,f11,positive).
example(e523,f1,negative).
example(e523,f2,positive).
example(e523,f3,negative).
example(e523,f4,positive).
example(e523,f5,negative).
example(e523,f6,negative).
example(e523,f7,positive).
example(e523,f8,negative).
example(e523,f9,negative).
example(e523,f10,negative).
example(e523,f11,negative).
example(e524,f1,negative).
example(e524,f2,positive).
example(e524,f3,negative).
example(e524,f4,positive).
example(e524,f5,negative).
example(e524,f6,negative).
example(e524,f7,positive).
example(e524,f8,negative).
example(e524,f9,negative).
example(e524,f10,negative).
example(e524,f11,positive).
example(e525,f1,negative).
example(e525,f2,positive).
example(e525,f3,negative).
example(e525,f4,positive).
example(e525,f5,negative).
example(e525,f6,negative).
example(e525,f7,positive).
example(e525,f8,positive).
example(e525,f9,negative).
example(e525,f10,negative).
example(e525,f11,negative).
example(e526,f1,negative).
example(e526,f2,positive).
example(e526,f3,negative).
example(e526,f4,positive).
example(e526,f5,negative).
example(e526,f6,negative).
example(e526,f7,positive).
example(e526,f8,positive).
example(e526,f9,negative).
example(e526,f10,negative).
example(e526,f11,positive).
example(e527,f1,negative).
example(e527,f2,positive).
example(e527,f3,negative).
example(e527,f4,positive).
example(e527,f5,negative).
example(e527,f6,negative).
example(e527,f7,positive).
example(e527,f8,negative).
example(e527,f9,positive).
example(e527,f10,negative).
example(e527,f11,negative).
example(e528,f1,negative).
example(e528,f2,positive).
example(e528,f3,negative).
example(e528,f4,positive).
example(e528,f5,negative).
example(e528,f6,negative).
example(e528,f7,positive).
example(e528,f8,negative).
example(e528,f9,positive).
example(e528,f10,negative).
example(e528,f11,positive).
example(e529,f1,negative).
example(e529,f2,positive).
example(e529,f3,negative).
example(e529,f4,positive).
example(e529,f5,negative).
example(e529,f6,negative).
example(e529,f7,positive).
example(e529,f8,negative).
example(e529,f9,negative).
example(e529,f10,positive).
example(e529,f11,negative).
example(e530,f1,negative).
example(e530,f2,positive).
example(e530,f3,negative).
example(e530,f4,positive).
example(e530,f5,negative).
example(e530,f6,negative).
example(e530,f7,positive).
example(e530,f8,negative).
example(e530,f9,negative).
example(e530,f10,positive).
example(e530,f11,positive).
example(e531,f1,negative).
example(e531,f2,positive).
example(e531,f3,negative).
example(e531,f4,positive).
example(e531,f5,positive).
example(e531,f6,negative).
example(e531,f7,negative).
example(e531,f8,negative).
example(e531,f9,negative).
example(e531,f10,negative).
example(e531,f11,negative).
example(e532,f1,negative).
example(e532,f2,positive).
example(e532,f3,negative).
example(e532,f4,positive).
example(e532,f5,positive).
example(e532,f6,negative).
example(e532,f7,negative).
example(e532,f8,negative).
example(e532,f9,negative).
example(e532,f10,negative).
example(e532,f11,positive).
example(e533,f1,negative).
example(e533,f2,positive).
example(e533,f3,negative).
example(e533,f4,positive).
example(e533,f5,positive).
example(e533,f6,negative).
example(e533,f7,negative).
example(e533,f8,positive).
example(e533,f9,negative).
example(e533,f10,negative).
example(e533,f11,negative).
example(e534,f1,negative).
example(e534,f2,positive).
example(e534,f3,negative).
example(e534,f4,positive).
example(e534,f5,positive).
example(e534,f6,negative).
example(e534,f7,negative).
example(e534,f8,positive).
example(e534,f9,negative).
example(e534,f10,negative).
example(e534,f11,positive).
example(e535,f1,negative).
example(e535,f2,positive).
example(e535,f3,negative).
example(e535,f4,positive).
example(e535,f5,positive).
example(e535,f6,negative).
example(e535,f7,negative).
example(e535,f8,negative).
example(e535,f9,positive).
example(e535,f10,negative).
example(e535,f11,negative).
example(e536,f1,negative).
example(e536,f2,positive).
example(e536,f3,negative).
example(e536,f4,positive).
example(e536,f5,positive).
example(e536,f6,negative).
example(e536,f7,negative).
example(e536,f8,negative).
example(e536,f9,positive).
example(e536,f10,negative).
example(e536,f11,positive).
example(e537,f1,negative).
example(e537,f2,positive).
example(e537,f3,negative).
example(e537,f4,positive).
example(e537,f5,positive).
example(e537,f6,negative).
example(e537,f7,negative).
example(e537,f8,negative).
example(e537,f9,negative).
example(e537,f10,positive).
example(e537,f11,negative).
example(e538,f1,negative).
example(e538,f2,positive).
example(e538,f3,negative).
example(e538,f4,positive).
example(e538,f5,positive).
example(e538,f6,negative).
example(e538,f7,negative).
example(e538,f8,negative).
example(e538,f9,negative).
example(e538,f10,positive).
example(e538,f11,positive).
example(e539,f1,negative).
example(e539,f2,positive).
example(e539,f3,negative).
example(e539,f4,positive).
example(e539,f5,positive).
example(e539,f6,positive).
example(e539,f7,negative).
example(e539,f8,negative).
example(e539,f9,negative).
example(e539,f10,negative).
example(e539,f11,negative).
example(e540,f1,negative).
example(e540,f2,positive).
example(e540,f3,negative).
example(e540,f4,positive).
example(e540,f5,positive).
example(e540,f6,positive).
example(e540,f7,negative).
example(e540,f8,negative).
example(e540,f9,negative).
example(e540,f10,negative).
example(e540,f11,positive).
example(e541,f1,negative).
example(e541,f2,positive).
example(e541,f3,negative).
example(e541,f4,positive).
example(e541,f5,positive).
example(e541,f6,positive).
example(e541,f7,negative).
example(e541,f8,positive).
example(e541,f9,negative).
example(e541,f10,negative).
example(e541,f11,negative).
example(e542,f1,negative).
example(e542,f2,positive).
example(e542,f3,negative).
example(e542,f4,positive).
example(e542,f5,positive).
example(e542,f6,positive).
example(e542,f7,negative).
example(e542,f8,positive).
example(e542,f9,negative).
example(e542,f10,negative).
example(e542,f11,positive).
example(e543,f1,negative).
example(e543,f2,positive).
example(e543,f3,negative).
example(e543,f4,positive).
example(e543,f5,positive).
example(e543,f6,positive).
example(e543,f7,negative).
example(e543,f8,negative).
example(e543,f9,positive).
example(e543,f10,negative).
example(e543,f11,negative).
example(e544,f1,negative).
example(e544,f2,positive).
example(e544,f3,negative).
example(e544,f4,positive).
example(e544,f5,positive).
example(e544,f6,positive).
example(e544,f7,negative).
example(e544,f8,negative).
example(e544,f9,positive).
example(e544,f10,negative).
example(e544,f11,positive).
example(e545,f1,negative).
example(e545,f2,positive).
example(e545,f3,negative).
example(e545,f4,positive).
example(e545,f5,positive).
example(e545,f6,positive).
example(e545,f7,negative).
example(e545,f8,negative).
example(e545,f9,negative).
example(e545,f10,positive).
example(e545,f11,negative).
example(e546,f1,negative).
example(e546,f2,positive).
example(e546,f3,negative).
example(e546,f4,positive).
example(e546,f5,positive).
example(e546,f6,positive).
example(e546,f7,negative).
example(e546,f8,negative).
example(e546,f9,negative).
example(e546,f10,positive).
example(e546,f11,positive).
example(e547,f1,negative).
example(e547,f2,positive).
example(e547,f3,negative).
example(e547,f4,positive).
example(e547,f5,positive).
example(e547,f6,negative).
example(e547,f7,positive).
example(e547,f8,negative).
example(e547,f9,negative).
example(e547,f10,negative).
example(e547,f11,negative).
example(e548,f1,negative).
example(e548,f2,positive).
example(e548,f3,negative).
example(e548,f4,positive).
example(e548,f5,positive).
example(e548,f6,negative).
example(e548,f7,positive).
example(e548,f8,negative).
example(e548,f9,negative).
example(e548,f10,negative).
example(e548,f11,positive).
example(e549,f1,negative).
example(e549,f2,positive).
example(e549,f3,negative).
example(e549,f4,positive).
example(e549,f5,positive).
example(e549,f6,negative).
example(e549,f7,positive).
example(e549,f8,positive).
example(e549,f9,negative).
example(e549,f10,negative).
example(e549,f11,negative).
example(e550,f1,negative).
example(e550,f2,positive).
example(e550,f3,negative).
example(e550,f4,positive).
example(e550,f5,positive).
example(e550,f6,negative).
example(e550,f7,positive).
example(e550,f8,positive).
example(e550,f9,negative).
example(e550,f10,negative).
example(e550,f11,positive).
example(e551,f1,negative).
example(e551,f2,positive).
example(e551,f3,negative).
example(e551,f4,positive).
example(e551,f5,positive).
example(e551,f6,negative).
example(e551,f7,positive).
example(e551,f8,negative).
example(e551,f9,positive).
example(e551,f10,negative).
example(e551,f11,negative).
example(e552,f1,negative).
example(e552,f2,positive).
example(e552,f3,negative).
example(e552,f4,positive).
example(e552,f5,positive).
example(e552,f6,negative).
example(e552,f7,positive).
example(e552,f8,negative).
example(e552,f9,positive).
example(e552,f10,negative).
example(e552,f11,positive).
example(e553,f1,negative).
example(e553,f2,positive).
example(e553,f3,negative).
example(e553,f4,positive).
example(e553,f5,positive).
example(e553,f6,negative).
example(e553,f7,positive).
example(e553,f8,negative).
example(e553,f9,negative).
example(e553,f10,positive).
example(e553,f11,negative).
example(e554,f1,negative).
example(e554,f2,positive).
example(e554,f3,negative).
example(e554,f4,positive).
example(e554,f5,positive).
example(e554,f6,negative).
example(e554,f7,positive).
example(e554,f8,negative).
example(e554,f9,negative).
example(e554,f10,positive).
example(e554,f11,positive).
target(e1,positive).
target(e2,positive).
target(e3,positive).
target(e4,negative).
target(e5,negative).
target(e6,positive).
target(e7,positive).
target(e8,negative).
target(e9,positive).
target(e10,negative).
target(e11,positive).
target(e12,negative).
target(e13,negative).
target(e14,positive).
target(e15,positive).
target(e16,positive).
target(e17,positive).
target(e18,positive).
target(e19,positive).
target(e20,positive).
target(e21,negative).
target(e22,positive).
target(e23,positive).
target(e24,positive).
target(e25,positive).
target(e26,positive).
target(e27,negative).
target(e28,positive).
target(e29,negative).
target(e30,positive).
target(e31,positive).
target(e32,positive).
target(e33,positive).
target(e34,positive).
target(e35,positive).
target(e36,negative).
target(e37,negative).
target(e38,negative).
target(e39,negative).
target(e40,negative).
target(e41,negative).
target(e42,negative).
target(e43,negative).
target(e44,negative).
target(e45,negative).
target(e46,negative).
target(e47,negative).
target(e48,negative).
target(e49,positive).
target(e50,positive).
target(e51,negative).
target(e52,negative).
target(e53,positive).
target(e54,positive).
target(e55,positive).
target(e56,positive).
target(e57,negative).
target(e58,positive).
target(e59,negative).
target(e60,positive).
target(e61,positive).
target(e62,negative).
target(e63,positive).
target(e64,negative).
target(e65,positive).
target(e66,positive).
target(e67,negative).
target(e68,negative).
target(e69,negative).
target(e70,positive).
target(e71,positive).
target(e72,positive).
target(e73,positive).
target(e74,negative).
target(e75,positive).
target(e76,negative).
target(e77,negative).
target(e78,negative).
target(e79,negative).
target(e80,negative).
target(e81,negative).
target(e82,negative).
target(e83,negative).
target(e84,negative).
target(e85,negative).
target(e86,negative).
target(e87,negative).
target(e88,negative).
target(e89,positive).
target(e90,positive).
target(e91,positive).
target(e92,negative).
target(e93,positive).
target(e94,negative).
target(e95,positive).
target(e96,positive).
target(e97,negative).
target(e98,positive).
target(e99,positive).
target(e100,negative).
target(e101,positive).
target(e102,positive).
target(e103,positive).
target(e104,positive).
target(e105,positive).
target(e106,positive).
target(e107,positive).
target(e108,negative).
target(e109,positive).
target(e110,positive).
target(e111,negative).
target(e112,negative).
target(e113,negative).
target(e114,negative).
target(e115,negative).
target(e116,negative).
target(e117,negative).
target(e118,negative).
target(e119,negative).
target(e120,negative).
target(e121,negative).
target(e122,negative).
target(e123,positive).
target(e124,positive).
target(e125,positive).
target(e126,positive).
target(e127,positive).
target(e128,positive).
target(e129,negative).
target(e130,negative).
target(e131,positive).
target(e132,positive).
target(e133,positive).
target(e134,positive).
target(e135,positive).
target(e136,positive).
target(e137,negative).
target(e138,negative).
target(e139,positive).
target(e140,positive).
target(e141,positive).
target(e142,positive).
target(e143,positive).
target(e144,positive).
target(e145,negative).
target(e146,negative).
target(e147,positive).
target(e148,positive).
target(e149,positive).
target(e150,positive).
target(e151,positive).
target(e152,positive).
target(e153,negative).
target(e154,negative).
target(e155,positive).
target(e156,positive).
target(e157,positive).
target(e158,positive).
target(e159,positive).
target(e160,positive).
target(e161,negative).
target(e162,negative).
target(e163,positive).
target(e164,positive).
target(e165,positive).
target(e166,positive).
target(e167,positive).
target(e168,positive).
target(e169,negative).
target(e170,negative).
target(e171,positive).
target(e172,positive).
target(e173,positive).
target(e174,positive).
target(e175,positive).
target(e176,positive).
target(e177,negative).
target(e178,negative).
target(e179,positive).
target(e180,positive).
target(e181,positive).
target(e182,positive).
target(e183,positive).
target(e184,positive).
target(e185,negative).
target(e186,negative).
target(e187,positive).
target(e188,positive).
target(e189,positive).
target(e190,positive).
target(e191,positive).
target(e192,positive).
target(e193,negative).
target(e194,negative).
target(e195,positive).
target(e196,positive).
target(e197,positive).
target(e198,positive).
target(e199,positive).
target(e200,positive).
target(e201,negative).
target(e202,negative).
target(e203,positive).
target(e204,positive).
target(e205,positive).
target(e206,positive).
target(e207,positive).
target(e208,positive).
target(e209,negative).
target(e210,negative).
target(e211,positive).
target(e212,positive).
target(e213,positive).
target(e214,positive).
target(e215,positive).
target(e216,positive).
target(e217,negative).
target(e218,negative).
target(e219,negative).
target(e220,negative).
target(e221,negative).
target(e222,negative).
target(e223,positive).
target(e224,positive).
target(e225,negative).
target(e226,negative).
target(e227,negative).
target(e228,negative).
target(e229,negative).
target(e230,negative).
target(e231,negative).
target(e232,negative).
target(e233,negative).
target(e234,negative).
target(e235,negative).
target(e236,negative).
target(e237,negative).
target(e238,negative).
target(e239,negative).
target(e240,negative).
target(e241,negative).
target(e242,negative).
target(e243,negative).
target(e244,negative).
target(e245,negative).
target(e246,negative).
target(e247,positive).
target(e248,positive).
target(e249,negative).
target(e250,negative).
target(e251,negative).
target(e252,negative).
target(e253,negative).
target(e254,negative).
target(e255,negative).
target(e256,negative).
target(e257,negative).
target(e258,negative).
target(e259,negative).
target(e260,negative).
target(e261,negative).
target(e262,negative).
target(e263,negative).
target(e264,negative).
target(e265,negative).
target(e266,negative).
target(e267,positive).
target(e268,positive).
target(e269,positive).
target(e270,positive).
target(e271,positive).
target(e272,positive).
target(e273,negative).
target(e274,negative).
target(e275,positive).
target(e276,positive).
target(e277,positive).
target(e278,positive).
target(e279,positive).
target(e280,positive).
target(e281,negative).
target(e282,negative).
target(e283,positive).
target(e284,positive).
target(e285,positive).
target(e286,positive).
target(e287,positive).
target(e288,positive).
target(e289,negative).
target(e290,negative).
target(e291,positive).
target(e292,positive).
target(e293,positive).
target(e294,positive).
target(e295,positive).
target(e296,positive).
target(e297,negative).
target(e298,negative).
target(e299,positive).
target(e300,positive).
target(e301,positive).
target(e302,positive).
target(e303,positive).
target(e304,positive).
target(e305,negative).
target(e306,negative).
target(e307,positive).
target(e308,positive).
target(e309,positive).
target(e310,positive).
target(e311,positive).
target(e312,positive).
target(e313,negative).
target(e314,negative).
target(e315,positive).
target(e316,positive).
target(e317,positive).
target(e318,positive).
target(e319,positive).
target(e320,positive).
target(e321,negative).
target(e322,negative).
target(e323,positive).
target(e324,positive).
target(e325,positive).
target(e326,positive).
target(e327,positive).
target(e328,positive).
target(e329,negative).
target(e330,negative).
target(e331,positive).
target(e332,positive).
target(e333,positive).
target(e334,positive).
target(e335,positive).
target(e336,positive).
target(e337,negative).
target(e338,negative).
target(e339,positive).
target(e340,positive).
target(e341,positive).
target(e342,positive).
target(e343,positive).
target(e344,positive).
target(e345,negative).
target(e346,negative).
target(e347,positive).
target(e348,positive).
target(e349,positive).
target(e350,positive).
target(e351,positive).
target(e352,positive).
target(e353,negative).
target(e354,negative).
target(e355,positive).
target(e356,positive).
target(e357,positive).
target(e358,positive).
target(e359,positive).
target(e360,positive).
target(e361,negative).
target(e362,negative).
target(e363,negative).
target(e364,negative).
target(e365,negative).
target(e366,negative).
target(e367,positive).
target(e368,positive).
target(e369,negative).
target(e370,negative).
target(e371,negative).
target(e372,negative).
target(e373,negative).
target(e374,negative).
target(e375,negative).
target(e376,negative).
target(e377,negative).
target(e378,negative).
target(e379,negative).
target(e380,negative).
target(e381,negative).
target(e382,negative).
target(e383,negative).
target(e384,negative).
target(e385,negative).
target(e386,negative).
target(e387,negative).
target(e388,negative).
target(e389,negative).
target(e390,negative).
target(e391,positive).
target(e392,positive).
target(e393,negative).
target(e394,negative).
target(e395,negative).
target(e396,negative).
target(e397,negative).
target(e398,negative).
target(e399,negative).
target(e400,negative).
target(e401,negative).
target(e402,negative).
target(e403,negative).
target(e404,negative).
target(e405,negative).
target(e406,negative).
target(e407,negative).
target(e408,negative).
target(e409,negative).
target(e410,negative).
target(e411,positive).
target(e412,positive).
target(e413,positive).
target(e414,positive).
target(e415,positive).
target(e416,positive).
target(e417,negative).
target(e418,negative).
target(e419,positive).
target(e420,positive).
target(e421,positive).
target(e422,positive).
target(e423,positive).
target(e424,positive).
target(e425,negative).
target(e426,negative).
target(e427,positive).
target(e428,positive).
target(e429,positive).
target(e430,positive).
target(e431,positive).
target(e432,positive).
target(e433,negative).
target(e434,negative).
target(e435,positive).
target(e436,positive).
target(e437,positive).
target(e438,positive).
target(e439,positive).
target(e440,positive).
target(e441,negative).
target(e442,negative).
target(e443,positive).
target(e444,positive).
target(e445,positive).
target(e446,positive).
target(e447,positive).
target(e448,positive).
target(e449,negative).
target(e450,negative).
target(e451,positive).
target(e452,positive).
target(e453,positive).
target(e454,positive).
target(e455,positive).
target(e456,positive).
target(e457,negative).
target(e458,negative).
target(e459,positive).
target(e460,positive).
target(e461,positive).
target(e462,positive).
target(e463,positive).
target(e464,positive).
target(e465,negative).
target(e466,negative).
target(e467,positive).
target(e468,positive).
target(e469,positive).
target(e470,positive).
target(e471,positive).
target(e472,positive).
target(e473,negative).
target(e474,negative).
target(e475,positive).
target(e476,positive).
target(e477,positive).
target(e478,positive).
target(e479,positive).
target(e480,positive).
target(e481,negative).
target(e482,negative).
target(e483,positive).
target(e484,positive).
target(e485,positive).
target(e486,positive).
target(e487,positive).
target(e488,positive).
target(e489,negative).
target(e490,negative).
target(e491,positive).
target(e492,positive).
target(e493,positive).
target(e494,positive).
target(e495,positive).
target(e496,positive).
target(e497,negative).
target(e498,negative).
target(e499,positive).
target(e500,positive).
target(e501,positive).
target(e502,positive).
target(e503,positive).
target(e504,positive).
target(e505,negative).
target(e506,negative).
target(e507,negative).
target(e508,negative).
target(e509,negative).
target(e510,negative).
target(e511,positive).
target(e512,positive).
target(e513,negative).
target(e514,negative).
target(e515,negative).
target(e516,negative).
target(e517,negative).
target(e518,negative).
target(e519,negative).
target(e520,negative).
target(e521,negative).
target(e522,negative).
target(e523,negative).
target(e524,negative).
target(e525,negative).
target(e526,negative).
target(e527,negative).
target(e528,negative).
target(e529,negative).
target(e530,negative).
target(e531,negative).
target(e532,negative).
target(e533,negative).
target(e534,negative).
target(e535,positive).
target(e536,positive).
target(e537,negative).
target(e538,negative).
target(e539,negative).
target(e540,negative).
target(e541,negative).
target(e542,negative).
target(e543,negative).
target(e544,negative).
target(e545,negative).
target(e546,negative).
target(e547,negative).
target(e548,negative).
target(e549,negative).
target(e550,negative).
target(e551,negative).
target(e552,negative).
target(e553,negative).
target(e554,negative).
feature(f1; f2; f3; f4; f5; f6; f7; f8; f9; f10; f11).
% |--- f4 <= 0.50
% |   |--- f10 <= 0.50
% |   |   |--- f9 <= 0.50
% |   |   |   |--- f1 <= 0.50
% |   |   |   |   |--- class: 1
% |   |   |   |--- f1 >  0.50
% |   |   |   |   |--- f6 <= 0.50
% |   |   |   |   |   |--- class: 1
% |   |   |   |   |--- f6 >  0.50
% |   |   |   |   |   |--- f8 <= 0.50
% |   |   |   |   |   |   |--- class: 1
% |   |   |   |   |   |--- f8 >  0.50
% |   |   |   |   |   |   |--- f5 <= 0.50
% |   |   |   |   |   |   |   |--- f11 <= 0.50
% |   |   |   |   |   |   |   |   |--- f3 <= 0.50
% |   |   |   |   |   |   |   |   |   |--- class: 1
% |   |   |   |   |   |   |   |   |--- f3 >  0.50
% |   |   |   |   |   |   |   |   |   |--- class: 0
% |   |   |   |   |   |   |   |--- f11 >  0.50
% |   |   |   |   |   |   |   |   |--- class: 1
% |   |   |   |   |   |   |--- f5 >  0.50
% |   |   |   |   |   |   |   |--- class: 1
% |   |   |--- f9 >  0.50
% |   |   |   |--- f5 <= 0.50
% |   |   |   |   |--- f2 <= 0.50
% |   |   |   |   |   |--- f11 <= 0.50
% |   |   |   |   |   |   |--- f1 <= 0.50
% |   |   |   |   |   |   |   |--- f7 <= 0.50
% |   |   |   |   |   |   |   |   |--- f6 <= 0.50
% |   |   |   |   |   |   |   |   |   |--- f3 <= 0.50
% |   |   |   |   |   |   |   |   |   |   |--- class: 0
% |   |   |   |   |   |   |   |   |   |--- f3 >  0.50
% |   |   |   |   |   |   |   |   |   |   |--- class: 1
% |   |   |   |   |   |   |   |   |--- f6 >  0.50
% |   |   |   |   |   |   |   |   |   |--- f3 <= 0.50
% |   |   |   |   |   |   |   |   |   |   |--- class: 1
% |   |   |   |   |   |   |   |   |   |--- f3 >  0.50
% |   |   |   |   |   |   |   |   |   |   |--- class: 0
% |   |   |   |   |   |   |   |--- f7 >  0.50
% |   |   |   |   |   |   |   |   |--- class: 1
% |   |   |   |   |   |   |--- f1 >  0.50
% |   |   |   |   |   |   |   |--- f7 <= 0.50
% |   |   |   |   |   |   |   |   |--- class: 1
% |   |   |   |   |   |   |   |--- f7 >  0.50
% |   |   |   |   |   |   |   |   |--- f3 <= 0.50
% |   |   |   |   |   |   |   |   |   |--- class: 1
% |   |   |   |   |   |   |   |   |--- f3 >  0.50
% |   |   |   |   |   |   |   |   |   |--- class: 0
% |   |   |   |   |   |--- f11 >  0.50
% |   |   |   |   |   |   |--- f7 <= 0.50
% |   |   |   |   |   |   |   |--- class: 1
% |   |   |   |   |   |   |--- f7 >  0.50
% |   |   |   |   |   |   |   |--- f1 <= 0.50
% |   |   |   |   |   |   |   |   |--- class: 1
% |   |   |   |   |   |   |   |--- f1 >  0.50
% |   |   |   |   |   |   |   |   |--- f3 <= 0.50
% |   |   |   |   |   |   |   |   |   |--- class: 1
% |   |   |   |   |   |   |   |   |--- f3 >  0.50
% |   |   |   |   |   |   |   |   |   |--- class: 0
% |   |   |   |   |--- f2 >  0.50
% |   |   |   |   |   |--- class: 1
% |   |   |   |--- f5 >  0.50
% |   |   |   |   |--- class: 1
% |   |--- f10 >  0.50
% |   |   |--- class: 0
% |--- f4 >  0.50
% |   |--- f9 <= 0.50
% |   |   |--- f2 <= 0.50
% |   |   |   |--- class: 0
% |   |   |--- f2 >  0.50
% |   |   |   |--- f10 <= 0.50
% |   |   |   |   |--- class: 0
% |   |   |   |--- f10 >  0.50
% |   |   |   |   |--- f11 <= 0.50
% |   |   |   |   |   |--- f7 <= 0.50
% |   |   |   |   |   |   |--- f6 <= 0.50
% |   |   |   |   |   |   |   |--- f5 <= 0.50
% |   |   |   |   |   |   |   |   |--- class: 0
% |   |   |   |   |   |   |   |--- f5 >  0.50
% |   |   |   |   |   |   |   |   |--- class: 0
% |   |   |   |   |   |   |--- f6 >  0.50
% |   |   |   |   |   |   |   |--- class: 0
% |   |   |   |   |   |--- f7 >  0.50
% |   |   |   |   |   |   |--- class: 0
% |   |   |   |   |--- f11 >  0.50
% |   |   |   |   |   |--- class: 0
% |   |--- f9 >  0.50
% |   |   |--- f6 <= 0.50
% |   |   |   |--- f7 <= 0.50
% |   |   |   |   |--- class: 1
% |   |   |   |--- f7 >  0.50
% |   |   |   |   |--- class: 0
% |   |   |--- f6 >  0.50
% |   |   |   |--- class: 0
% Accuracy of the decision tree classifier on the training data: 0.99
% Depth of the decision tree classifier: 10
% Number of nodes in the decision tree classifier: 63
% Number of leaf nodes in the decision tree classifier: 32
