example(e1,f1,negative).
example(e1,f2,positive).
example(e1,f3,negative).
example(e1,f4,positive).
example(e1,f5,negative).
example(e1,f6,positive).
example(e1,f7,negative).
example(e1,f8,positive).
example(e1,f9,positive).
example(e1,f10,negative).
example(e1,f11,positive).
example(e1,f12,negative).
example(e1,f13,negative).
example(e1,f14,positive).
example(e1,f15,positive).
example(e1,f16,negative).
example(e1,f17,positive).
example(e1,f18,negative).
example(e2,f1,negative).
example(e2,f2,positive).
example(e2,f3,negative).
example(e2,f4,positive).
example(e2,f5,negative).
example(e2,f6,positive).
example(e2,f7,negative).
example(e2,f8,positive).
example(e2,f9,positive).
example(e2,f10,negative).
example(e2,f11,positive).
example(e2,f12,negative).
example(e2,f13,positive).
example(e2,f14,negative).
example(e2,f15,negative).
example(e2,f16,positive).
example(e2,f17,positive).
example(e2,f18,negative).
example(e3,f1,negative).
example(e3,f2,positive).
example(e3,f3,negative).
example(e3,f4,positive).
example(e3,f5,negative).
example(e3,f6,positive).
example(e3,f7,negative).
example(e3,f8,positive).
example(e3,f9,positive).
example(e3,f10,negative).
example(e3,f11,positive).
example(e3,f12,negative).
example(e3,f13,positive).
example(e3,f14,negative).
example(e3,f15,positive).
example(e3,f16,negative).
example(e3,f17,negative).
example(e3,f18,positive).
example(e4,f1,negative).
example(e4,f2,positive).
example(e4,f3,negative).
example(e4,f4,positive).
example(e4,f5,negative).
example(e4,f6,positive).
example(e4,f7,negative).
example(e4,f8,positive).
example(e4,f9,positive).
example(e4,f10,negative).
example(e4,f11,positive).
example(e4,f12,negative).
example(e4,f13,positive).
example(e4,f14,negative).
example(e4,f15,negative).
example(e4,f16,negative).
example(e4,f17,negative).
example(e4,f18,negative).
example(e5,f1,negative).
example(e5,f2,positive).
example(e5,f3,negative).
example(e5,f4,positive).
example(e5,f5,negative).
example(e5,f6,positive).
example(e5,f7,negative).
example(e5,f8,positive).
example(e5,f9,positive).
example(e5,f10,negative).
example(e5,f11,positive).
example(e5,f12,negative).
example(e5,f13,negative).
example(e5,f14,negative).
example(e5,f15,positive).
example(e5,f16,negative).
example(e5,f17,negative).
example(e5,f18,negative).
example(e6,f1,negative).
example(e6,f2,positive).
example(e6,f3,negative).
example(e6,f4,positive).
example(e6,f5,negative).
example(e6,f6,positive).
example(e6,f7,negative).
example(e6,f8,positive).
example(e6,f9,positive).
example(e6,f10,negative).
example(e6,f11,positive).
example(e6,f12,negative).
example(e6,f13,negative).
example(e6,f14,negative).
example(e6,f15,negative).
example(e6,f16,negative).
example(e6,f17,positive).
example(e6,f18,negative).
example(e7,f1,negative).
example(e7,f2,positive).
example(e7,f3,negative).
example(e7,f4,positive).
example(e7,f5,negative).
example(e7,f6,positive).
example(e7,f7,negative).
example(e7,f8,positive).
example(e7,f9,positive).
example(e7,f10,negative).
example(e7,f11,negative).
example(e7,f12,negative).
example(e7,f13,positive).
example(e7,f14,negative).
example(e7,f15,positive).
example(e7,f16,negative).
example(e7,f17,negative).
example(e7,f18,negative).
example(e8,f1,negative).
example(e8,f2,positive).
example(e8,f3,negative).
example(e8,f4,positive).
example(e8,f5,negative).
example(e8,f6,positive).
example(e8,f7,negative).
example(e8,f8,positive).
example(e8,f9,positive).
example(e8,f10,negative).
example(e8,f11,negative).
example(e8,f12,negative).
example(e8,f13,positive).
example(e8,f14,negative).
example(e8,f15,negative).
example(e8,f16,negative).
example(e8,f17,positive).
example(e8,f18,negative).
example(e9,f1,negative).
example(e9,f2,positive).
example(e9,f3,negative).
example(e9,f4,positive).
example(e9,f5,negative).
example(e9,f6,positive).
example(e9,f7,negative).
example(e9,f8,positive).
example(e9,f9,positive).
example(e9,f10,negative).
example(e9,f11,negative).
example(e9,f12,negative).
example(e9,f13,negative).
example(e9,f14,negative).
example(e9,f15,positive).
example(e9,f16,negative).
example(e9,f17,positive).
example(e9,f18,negative).
example(e10,f1,negative).
example(e10,f2,positive).
example(e10,f3,negative).
example(e10,f4,positive).
example(e10,f5,negative).
example(e10,f6,positive).
example(e10,f7,negative).
example(e10,f8,positive).
example(e10,f9,negative).
example(e10,f10,negative).
example(e10,f11,positive).
example(e10,f12,negative).
example(e10,f13,positive).
example(e10,f14,negative).
example(e10,f15,positive).
example(e10,f16,negative).
example(e10,f17,negative).
example(e10,f18,negative).
example(e11,f1,negative).
example(e11,f2,positive).
example(e11,f3,negative).
example(e11,f4,positive).
example(e11,f5,negative).
example(e11,f6,positive).
example(e11,f7,negative).
example(e11,f8,positive).
example(e11,f9,negative).
example(e11,f10,negative).
example(e11,f11,positive).
example(e11,f12,negative).
example(e11,f13,positive).
example(e11,f14,negative).
example(e11,f15,negative).
example(e11,f16,negative).
example(e11,f17,positive).
example(e11,f18,negative).
example(e12,f1,negative).
example(e12,f2,positive).
example(e12,f3,negative).
example(e12,f4,positive).
example(e12,f5,negative).
example(e12,f6,positive).
example(e12,f7,negative).
example(e12,f8,positive).
example(e12,f9,negative).
example(e12,f10,negative).
example(e12,f11,positive).
example(e12,f12,negative).
example(e12,f13,negative).
example(e12,f14,negative).
example(e12,f15,positive).
example(e12,f16,negative).
example(e12,f17,positive).
example(e12,f18,negative).
example(e13,f1,negative).
example(e13,f2,positive).
example(e13,f3,negative).
example(e13,f4,positive).
example(e13,f5,negative).
example(e13,f6,positive).
example(e13,f7,positive).
example(e13,f8,negative).
example(e13,f9,negative).
example(e13,f10,positive).
example(e13,f11,positive).
example(e13,f12,negative).
example(e13,f13,negative).
example(e13,f14,positive).
example(e13,f15,positive).
example(e13,f16,negative).
example(e13,f17,positive).
example(e13,f18,negative).
example(e14,f1,negative).
example(e14,f2,positive).
example(e14,f3,negative).
example(e14,f4,positive).
example(e14,f5,negative).
example(e14,f6,positive).
example(e14,f7,positive).
example(e14,f8,negative).
example(e14,f9,negative).
example(e14,f10,positive).
example(e14,f11,positive).
example(e14,f12,negative).
example(e14,f13,positive).
example(e14,f14,negative).
example(e14,f15,negative).
example(e14,f16,positive).
example(e14,f17,positive).
example(e14,f18,negative).
example(e15,f1,negative).
example(e15,f2,positive).
example(e15,f3,negative).
example(e15,f4,positive).
example(e15,f5,negative).
example(e15,f6,positive).
example(e15,f7,positive).
example(e15,f8,negative).
example(e15,f9,negative).
example(e15,f10,positive).
example(e15,f11,positive).
example(e15,f12,negative).
example(e15,f13,positive).
example(e15,f14,negative).
example(e15,f15,positive).
example(e15,f16,negative).
example(e15,f17,negative).
example(e15,f18,positive).
example(e16,f1,negative).
example(e16,f2,positive).
example(e16,f3,negative).
example(e16,f4,positive).
example(e16,f5,negative).
example(e16,f6,positive).
example(e16,f7,positive).
example(e16,f8,negative).
example(e16,f9,negative).
example(e16,f10,positive).
example(e16,f11,positive).
example(e16,f12,negative).
example(e16,f13,positive).
example(e16,f14,negative).
example(e16,f15,negative).
example(e16,f16,negative).
example(e16,f17,negative).
example(e16,f18,negative).
example(e17,f1,negative).
example(e17,f2,positive).
example(e17,f3,negative).
example(e17,f4,positive).
example(e17,f5,negative).
example(e17,f6,positive).
example(e17,f7,positive).
example(e17,f8,negative).
example(e17,f9,negative).
example(e17,f10,positive).
example(e17,f11,positive).
example(e17,f12,negative).
example(e17,f13,negative).
example(e17,f14,negative).
example(e17,f15,positive).
example(e17,f16,negative).
example(e17,f17,negative).
example(e17,f18,negative).
example(e18,f1,negative).
example(e18,f2,positive).
example(e18,f3,negative).
example(e18,f4,positive).
example(e18,f5,negative).
example(e18,f6,positive).
example(e18,f7,positive).
example(e18,f8,negative).
example(e18,f9,negative).
example(e18,f10,positive).
example(e18,f11,positive).
example(e18,f12,negative).
example(e18,f13,negative).
example(e18,f14,negative).
example(e18,f15,negative).
example(e18,f16,negative).
example(e18,f17,positive).
example(e18,f18,negative).
example(e19,f1,negative).
example(e19,f2,positive).
example(e19,f3,negative).
example(e19,f4,positive).
example(e19,f5,negative).
example(e19,f6,positive).
example(e19,f7,positive).
example(e19,f8,negative).
example(e19,f9,negative).
example(e19,f10,positive).
example(e19,f11,negative).
example(e19,f12,negative).
example(e19,f13,positive).
example(e19,f14,negative).
example(e19,f15,positive).
example(e19,f16,negative).
example(e19,f17,negative).
example(e19,f18,negative).
example(e20,f1,negative).
example(e20,f2,positive).
example(e20,f3,negative).
example(e20,f4,positive).
example(e20,f5,negative).
example(e20,f6,positive).
example(e20,f7,positive).
example(e20,f8,negative).
example(e20,f9,negative).
example(e20,f10,positive).
example(e20,f11,negative).
example(e20,f12,negative).
example(e20,f13,positive).
example(e20,f14,negative).
example(e20,f15,negative).
example(e20,f16,negative).
example(e20,f17,positive).
example(e20,f18,negative).
example(e21,f1,negative).
example(e21,f2,positive).
example(e21,f3,negative).
example(e21,f4,positive).
example(e21,f5,negative).
example(e21,f6,positive).
example(e21,f7,positive).
example(e21,f8,negative).
example(e21,f9,negative).
example(e21,f10,positive).
example(e21,f11,negative).
example(e21,f12,negative).
example(e21,f13,negative).
example(e21,f14,negative).
example(e21,f15,positive).
example(e21,f16,negative).
example(e21,f17,positive).
example(e21,f18,negative).
example(e22,f1,negative).
example(e22,f2,positive).
example(e22,f3,negative).
example(e22,f4,positive).
example(e22,f5,negative).
example(e22,f6,positive).
example(e22,f7,positive).
example(e22,f8,negative).
example(e22,f9,positive).
example(e22,f10,negative).
example(e22,f11,negative).
example(e22,f12,positive).
example(e22,f13,negative).
example(e22,f14,positive).
example(e22,f15,positive).
example(e22,f16,negative).
example(e22,f17,positive).
example(e22,f18,negative).
example(e23,f1,negative).
example(e23,f2,positive).
example(e23,f3,negative).
example(e23,f4,positive).
example(e23,f5,negative).
example(e23,f6,positive).
example(e23,f7,positive).
example(e23,f8,negative).
example(e23,f9,positive).
example(e23,f10,negative).
example(e23,f11,negative).
example(e23,f12,positive).
example(e23,f13,positive).
example(e23,f14,negative).
example(e23,f15,negative).
example(e23,f16,positive).
example(e23,f17,positive).
example(e23,f18,negative).
example(e24,f1,negative).
example(e24,f2,positive).
example(e24,f3,negative).
example(e24,f4,positive).
example(e24,f5,negative).
example(e24,f6,positive).
example(e24,f7,positive).
example(e24,f8,negative).
example(e24,f9,positive).
example(e24,f10,negative).
example(e24,f11,negative).
example(e24,f12,positive).
example(e24,f13,positive).
example(e24,f14,negative).
example(e24,f15,positive).
example(e24,f16,negative).
example(e24,f17,negative).
example(e24,f18,positive).
example(e25,f1,negative).
example(e25,f2,positive).
example(e25,f3,negative).
example(e25,f4,positive).
example(e25,f5,negative).
example(e25,f6,positive).
example(e25,f7,positive).
example(e25,f8,negative).
example(e25,f9,positive).
example(e25,f10,negative).
example(e25,f11,negative).
example(e25,f12,positive).
example(e25,f13,positive).
example(e25,f14,negative).
example(e25,f15,negative).
example(e25,f16,negative).
example(e25,f17,negative).
example(e25,f18,negative).
example(e26,f1,negative).
example(e26,f2,positive).
example(e26,f3,negative).
example(e26,f4,positive).
example(e26,f5,negative).
example(e26,f6,positive).
example(e26,f7,positive).
example(e26,f8,negative).
example(e26,f9,positive).
example(e26,f10,negative).
example(e26,f11,negative).
example(e26,f12,positive).
example(e26,f13,negative).
example(e26,f14,negative).
example(e26,f15,positive).
example(e26,f16,negative).
example(e26,f17,negative).
example(e26,f18,negative).
example(e27,f1,negative).
example(e27,f2,positive).
example(e27,f3,negative).
example(e27,f4,positive).
example(e27,f5,negative).
example(e27,f6,positive).
example(e27,f7,positive).
example(e27,f8,negative).
example(e27,f9,positive).
example(e27,f10,negative).
example(e27,f11,negative).
example(e27,f12,positive).
example(e27,f13,negative).
example(e27,f14,negative).
example(e27,f15,negative).
example(e27,f16,negative).
example(e27,f17,positive).
example(e27,f18,negative).
example(e28,f1,negative).
example(e28,f2,positive).
example(e28,f3,negative).
example(e28,f4,positive).
example(e28,f5,negative).
example(e28,f6,positive).
example(e28,f7,positive).
example(e28,f8,negative).
example(e28,f9,positive).
example(e28,f10,negative).
example(e28,f11,negative).
example(e28,f12,negative).
example(e28,f13,negative).
example(e28,f14,positive).
example(e28,f15,positive).
example(e28,f16,negative).
example(e28,f17,negative).
example(e28,f18,negative).
example(e29,f1,negative).
example(e29,f2,positive).
example(e29,f3,negative).
example(e29,f4,positive).
example(e29,f5,negative).
example(e29,f6,positive).
example(e29,f7,positive).
example(e29,f8,negative).
example(e29,f9,positive).
example(e29,f10,negative).
example(e29,f11,negative).
example(e29,f12,negative).
example(e29,f13,negative).
example(e29,f14,positive).
example(e29,f15,negative).
example(e29,f16,negative).
example(e29,f17,positive).
example(e29,f18,negative).
example(e30,f1,negative).
example(e30,f2,positive).
example(e30,f3,negative).
example(e30,f4,positive).
example(e30,f5,negative).
example(e30,f6,positive).
example(e30,f7,positive).
example(e30,f8,negative).
example(e30,f9,positive).
example(e30,f10,negative).
example(e30,f11,negative).
example(e30,f12,negative).
example(e30,f13,positive).
example(e30,f14,negative).
example(e30,f15,negative).
example(e30,f16,positive).
example(e30,f17,negative).
example(e30,f18,negative).
example(e31,f1,negative).
example(e31,f2,positive).
example(e31,f3,negative).
example(e31,f4,positive).
example(e31,f5,negative).
example(e31,f6,positive).
example(e31,f7,positive).
example(e31,f8,negative).
example(e31,f9,positive).
example(e31,f10,negative).
example(e31,f11,negative).
example(e31,f12,negative).
example(e31,f13,positive).
example(e31,f14,negative).
example(e31,f15,negative).
example(e31,f16,negative).
example(e31,f17,negative).
example(e31,f18,positive).
example(e32,f1,negative).
example(e32,f2,positive).
example(e32,f3,negative).
example(e32,f4,positive).
example(e32,f5,negative).
example(e32,f6,positive).
example(e32,f7,positive).
example(e32,f8,negative).
example(e32,f9,positive).
example(e32,f10,negative).
example(e32,f11,negative).
example(e32,f12,negative).
example(e32,f13,negative).
example(e32,f14,negative).
example(e32,f15,negative).
example(e32,f16,positive).
example(e32,f17,positive).
example(e32,f18,negative).
example(e33,f1,negative).
example(e33,f2,positive).
example(e33,f3,negative).
example(e33,f4,positive).
example(e33,f5,negative).
example(e33,f6,positive).
example(e33,f7,positive).
example(e33,f8,negative).
example(e33,f9,positive).
example(e33,f10,negative).
example(e33,f11,negative).
example(e33,f12,negative).
example(e33,f13,negative).
example(e33,f14,negative).
example(e33,f15,positive).
example(e33,f16,negative).
example(e33,f17,negative).
example(e33,f18,positive).
example(e34,f1,negative).
example(e34,f2,positive).
example(e34,f3,negative).
example(e34,f4,positive).
example(e34,f5,negative).
example(e34,f6,positive).
example(e34,f7,positive).
example(e34,f8,negative).
example(e34,f9,positive).
example(e34,f10,negative).
example(e34,f11,negative).
example(e34,f12,negative).
example(e34,f13,negative).
example(e34,f14,negative).
example(e34,f15,negative).
example(e34,f16,negative).
example(e34,f17,negative).
example(e34,f18,negative).
example(e35,f1,negative).
example(e35,f2,positive).
example(e35,f3,negative).
example(e35,f4,positive).
example(e35,f5,negative).
example(e35,f6,positive).
example(e35,f7,positive).
example(e35,f8,negative).
example(e35,f9,negative).
example(e35,f10,negative).
example(e35,f11,negative).
example(e35,f12,positive).
example(e35,f13,positive).
example(e35,f14,negative).
example(e35,f15,positive).
example(e35,f16,negative).
example(e35,f17,negative).
example(e35,f18,negative).
example(e36,f1,negative).
example(e36,f2,positive).
example(e36,f3,negative).
example(e36,f4,positive).
example(e36,f5,negative).
example(e36,f6,positive).
example(e36,f7,positive).
example(e36,f8,negative).
example(e36,f9,negative).
example(e36,f10,negative).
example(e36,f11,negative).
example(e36,f12,positive).
example(e36,f13,positive).
example(e36,f14,negative).
example(e36,f15,negative).
example(e36,f16,negative).
example(e36,f17,positive).
example(e36,f18,negative).
example(e37,f1,negative).
example(e37,f2,positive).
example(e37,f3,negative).
example(e37,f4,positive).
example(e37,f5,negative).
example(e37,f6,positive).
example(e37,f7,positive).
example(e37,f8,negative).
example(e37,f9,negative).
example(e37,f10,negative).
example(e37,f11,negative).
example(e37,f12,positive).
example(e37,f13,negative).
example(e37,f14,negative).
example(e37,f15,positive).
example(e37,f16,negative).
example(e37,f17,positive).
example(e37,f18,negative).
example(e38,f1,negative).
example(e38,f2,positive).
example(e38,f3,negative).
example(e38,f4,positive).
example(e38,f5,negative).
example(e38,f6,positive).
example(e38,f7,positive).
example(e38,f8,negative).
example(e38,f9,negative).
example(e38,f10,negative).
example(e38,f11,positive).
example(e38,f12,negative).
example(e38,f13,negative).
example(e38,f14,positive).
example(e38,f15,positive).
example(e38,f16,negative).
example(e38,f17,negative).
example(e38,f18,negative).
example(e39,f1,negative).
example(e39,f2,positive).
example(e39,f3,negative).
example(e39,f4,positive).
example(e39,f5,negative).
example(e39,f6,positive).
example(e39,f7,positive).
example(e39,f8,negative).
example(e39,f9,negative).
example(e39,f10,negative).
example(e39,f11,positive).
example(e39,f12,negative).
example(e39,f13,negative).
example(e39,f14,positive).
example(e39,f15,negative).
example(e39,f16,negative).
example(e39,f17,positive).
example(e39,f18,negative).
example(e40,f1,negative).
example(e40,f2,positive).
example(e40,f3,negative).
example(e40,f4,positive).
example(e40,f5,negative).
example(e40,f6,positive).
example(e40,f7,positive).
example(e40,f8,negative).
example(e40,f9,negative).
example(e40,f10,negative).
example(e40,f11,positive).
example(e40,f12,negative).
example(e40,f13,positive).
example(e40,f14,negative).
example(e40,f15,negative).
example(e40,f16,positive).
example(e40,f17,negative).
example(e40,f18,negative).
example(e41,f1,negative).
example(e41,f2,positive).
example(e41,f3,negative).
example(e41,f4,positive).
example(e41,f5,negative).
example(e41,f6,positive).
example(e41,f7,positive).
example(e41,f8,negative).
example(e41,f9,negative).
example(e41,f10,negative).
example(e41,f11,positive).
example(e41,f12,negative).
example(e41,f13,positive).
example(e41,f14,negative).
example(e41,f15,negative).
example(e41,f16,negative).
example(e41,f17,negative).
example(e41,f18,positive).
example(e42,f1,negative).
example(e42,f2,positive).
example(e42,f3,negative).
example(e42,f4,positive).
example(e42,f5,negative).
example(e42,f6,positive).
example(e42,f7,positive).
example(e42,f8,negative).
example(e42,f9,negative).
example(e42,f10,negative).
example(e42,f11,positive).
example(e42,f12,negative).
example(e42,f13,negative).
example(e42,f14,negative).
example(e42,f15,negative).
example(e42,f16,positive).
example(e42,f17,positive).
example(e42,f18,negative).
example(e43,f1,negative).
example(e43,f2,positive).
example(e43,f3,negative).
example(e43,f4,positive).
example(e43,f5,negative).
example(e43,f6,positive).
example(e43,f7,positive).
example(e43,f8,negative).
example(e43,f9,negative).
example(e43,f10,negative).
example(e43,f11,positive).
example(e43,f12,negative).
example(e43,f13,negative).
example(e43,f14,negative).
example(e43,f15,positive).
example(e43,f16,negative).
example(e43,f17,negative).
example(e43,f18,positive).
example(e44,f1,negative).
example(e44,f2,positive).
example(e44,f3,negative).
example(e44,f4,positive).
example(e44,f5,negative).
example(e44,f6,positive).
example(e44,f7,positive).
example(e44,f8,negative).
example(e44,f9,negative).
example(e44,f10,negative).
example(e44,f11,positive).
example(e44,f12,negative).
example(e44,f13,negative).
example(e44,f14,negative).
example(e44,f15,negative).
example(e44,f16,negative).
example(e44,f17,negative).
example(e44,f18,negative).
example(e45,f1,negative).
example(e45,f2,positive).
example(e45,f3,negative).
example(e45,f4,positive).
example(e45,f5,negative).
example(e45,f6,positive).
example(e45,f7,positive).
example(e45,f8,negative).
example(e45,f9,negative).
example(e45,f10,negative).
example(e45,f11,negative).
example(e45,f12,negative).
example(e45,f13,negative).
example(e45,f14,positive).
example(e45,f15,positive).
example(e45,f16,negative).
example(e45,f17,positive).
example(e45,f18,negative).
example(e46,f1,negative).
example(e46,f2,positive).
example(e46,f3,negative).
example(e46,f4,positive).
example(e46,f5,negative).
example(e46,f6,positive).
example(e46,f7,positive).
example(e46,f8,negative).
example(e46,f9,negative).
example(e46,f10,negative).
example(e46,f11,negative).
example(e46,f12,negative).
example(e46,f13,positive).
example(e46,f14,negative).
example(e46,f15,negative).
example(e46,f16,positive).
example(e46,f17,positive).
example(e46,f18,negative).
example(e47,f1,negative).
example(e47,f2,positive).
example(e47,f3,negative).
example(e47,f4,positive).
example(e47,f5,negative).
example(e47,f6,positive).
example(e47,f7,positive).
example(e47,f8,negative).
example(e47,f9,negative).
example(e47,f10,negative).
example(e47,f11,negative).
example(e47,f12,negative).
example(e47,f13,positive).
example(e47,f14,negative).
example(e47,f15,positive).
example(e47,f16,negative).
example(e47,f17,negative).
example(e47,f18,positive).
example(e48,f1,negative).
example(e48,f2,positive).
example(e48,f3,negative).
example(e48,f4,positive).
example(e48,f5,negative).
example(e48,f6,positive).
example(e48,f7,positive).
example(e48,f8,negative).
example(e48,f9,negative).
example(e48,f10,negative).
example(e48,f11,negative).
example(e48,f12,negative).
example(e48,f13,positive).
example(e48,f14,negative).
example(e48,f15,negative).
example(e48,f16,negative).
example(e48,f17,negative).
example(e48,f18,negative).
example(e49,f1,negative).
example(e49,f2,positive).
example(e49,f3,negative).
example(e49,f4,positive).
example(e49,f5,negative).
example(e49,f6,positive).
example(e49,f7,positive).
example(e49,f8,negative).
example(e49,f9,negative).
example(e49,f10,negative).
example(e49,f11,negative).
example(e49,f12,negative).
example(e49,f13,negative).
example(e49,f14,negative).
example(e49,f15,positive).
example(e49,f16,negative).
example(e49,f17,negative).
example(e49,f18,negative).
example(e50,f1,negative).
example(e50,f2,positive).
example(e50,f3,negative).
example(e50,f4,positive).
example(e50,f5,negative).
example(e50,f6,positive).
example(e50,f7,positive).
example(e50,f8,negative).
example(e50,f9,negative).
example(e50,f10,negative).
example(e50,f11,negative).
example(e50,f12,negative).
example(e50,f13,negative).
example(e50,f14,negative).
example(e50,f15,negative).
example(e50,f16,negative).
example(e50,f17,positive).
example(e50,f18,negative).
example(e51,f1,negative).
example(e51,f2,positive).
example(e51,f3,negative).
example(e51,f4,positive).
example(e51,f5,negative).
example(e51,f6,positive).
example(e51,f7,negative).
example(e51,f8,negative).
example(e51,f9,negative).
example(e51,f10,positive).
example(e51,f11,positive).
example(e51,f12,negative).
example(e51,f13,positive).
example(e51,f14,negative).
example(e51,f15,positive).
example(e51,f16,negative).
example(e51,f17,negative).
example(e51,f18,negative).
example(e52,f1,negative).
example(e52,f2,positive).
example(e52,f3,negative).
example(e52,f4,positive).
example(e52,f5,negative).
example(e52,f6,positive).
example(e52,f7,negative).
example(e52,f8,negative).
example(e52,f9,negative).
example(e52,f10,positive).
example(e52,f11,positive).
example(e52,f12,negative).
example(e52,f13,positive).
example(e52,f14,negative).
example(e52,f15,negative).
example(e52,f16,negative).
example(e52,f17,positive).
example(e52,f18,negative).
example(e53,f1,negative).
example(e53,f2,positive).
example(e53,f3,negative).
example(e53,f4,positive).
example(e53,f5,negative).
example(e53,f6,positive).
example(e53,f7,negative).
example(e53,f8,negative).
example(e53,f9,negative).
example(e53,f10,positive).
example(e53,f11,positive).
example(e53,f12,negative).
example(e53,f13,negative).
example(e53,f14,negative).
example(e53,f15,positive).
example(e53,f16,negative).
example(e53,f17,positive).
example(e53,f18,negative).
example(e54,f1,negative).
example(e54,f2,positive).
example(e54,f3,negative).
example(e54,f4,positive).
example(e54,f5,negative).
example(e54,f6,positive).
example(e54,f7,negative).
example(e54,f8,negative).
example(e54,f9,positive).
example(e54,f10,negative).
example(e54,f11,negative).
example(e54,f12,positive).
example(e54,f13,positive).
example(e54,f14,negative).
example(e54,f15,positive).
example(e54,f16,negative).
example(e54,f17,negative).
example(e54,f18,negative).
example(e55,f1,negative).
example(e55,f2,positive).
example(e55,f3,negative).
example(e55,f4,positive).
example(e55,f5,negative).
example(e55,f6,positive).
example(e55,f7,negative).
example(e55,f8,negative).
example(e55,f9,positive).
example(e55,f10,negative).
example(e55,f11,negative).
example(e55,f12,positive).
example(e55,f13,positive).
example(e55,f14,negative).
example(e55,f15,negative).
example(e55,f16,negative).
example(e55,f17,positive).
example(e55,f18,negative).
example(e56,f1,negative).
example(e56,f2,positive).
example(e56,f3,negative).
example(e56,f4,positive).
example(e56,f5,negative).
example(e56,f6,positive).
example(e56,f7,negative).
example(e56,f8,negative).
example(e56,f9,positive).
example(e56,f10,negative).
example(e56,f11,negative).
example(e56,f12,positive).
example(e56,f13,negative).
example(e56,f14,negative).
example(e56,f15,positive).
example(e56,f16,negative).
example(e56,f17,positive).
example(e56,f18,negative).
example(e57,f1,negative).
example(e57,f2,positive).
example(e57,f3,negative).
example(e57,f4,positive).
example(e57,f5,negative).
example(e57,f6,positive).
example(e57,f7,negative).
example(e57,f8,negative).
example(e57,f9,positive).
example(e57,f10,negative).
example(e57,f11,positive).
example(e57,f12,negative).
example(e57,f13,negative).
example(e57,f14,positive).
example(e57,f15,positive).
example(e57,f16,negative).
example(e57,f17,negative).
example(e57,f18,negative).
example(e58,f1,negative).
example(e58,f2,positive).
example(e58,f3,negative).
example(e58,f4,positive).
example(e58,f5,negative).
example(e58,f6,positive).
example(e58,f7,negative).
example(e58,f8,negative).
example(e58,f9,positive).
example(e58,f10,negative).
example(e58,f11,positive).
example(e58,f12,negative).
example(e58,f13,negative).
example(e58,f14,positive).
example(e58,f15,negative).
example(e58,f16,negative).
example(e58,f17,positive).
example(e58,f18,negative).
example(e59,f1,negative).
example(e59,f2,positive).
example(e59,f3,negative).
example(e59,f4,positive).
example(e59,f5,negative).
example(e59,f6,positive).
example(e59,f7,negative).
example(e59,f8,negative).
example(e59,f9,positive).
example(e59,f10,negative).
example(e59,f11,positive).
example(e59,f12,negative).
example(e59,f13,positive).
example(e59,f14,negative).
example(e59,f15,negative).
example(e59,f16,positive).
example(e59,f17,negative).
example(e59,f18,negative).
example(e60,f1,negative).
example(e60,f2,positive).
example(e60,f3,negative).
example(e60,f4,positive).
example(e60,f5,negative).
example(e60,f6,positive).
example(e60,f7,negative).
example(e60,f8,negative).
example(e60,f9,positive).
example(e60,f10,negative).
example(e60,f11,positive).
example(e60,f12,negative).
example(e60,f13,positive).
example(e60,f14,negative).
example(e60,f15,negative).
example(e60,f16,negative).
example(e60,f17,negative).
example(e60,f18,positive).
example(e61,f1,negative).
example(e61,f2,positive).
example(e61,f3,negative).
example(e61,f4,positive).
example(e61,f5,negative).
example(e61,f6,positive).
example(e61,f7,negative).
example(e61,f8,negative).
example(e61,f9,positive).
example(e61,f10,negative).
example(e61,f11,positive).
example(e61,f12,negative).
example(e61,f13,negative).
example(e61,f14,negative).
example(e61,f15,negative).
example(e61,f16,positive).
example(e61,f17,positive).
example(e61,f18,negative).
example(e62,f1,negative).
example(e62,f2,positive).
example(e62,f3,negative).
example(e62,f4,positive).
example(e62,f5,negative).
example(e62,f6,positive).
example(e62,f7,negative).
example(e62,f8,negative).
example(e62,f9,positive).
example(e62,f10,negative).
example(e62,f11,positive).
example(e62,f12,negative).
example(e62,f13,negative).
example(e62,f14,negative).
example(e62,f15,positive).
example(e62,f16,negative).
example(e62,f17,negative).
example(e62,f18,positive).
example(e63,f1,negative).
example(e63,f2,positive).
example(e63,f3,negative).
example(e63,f4,positive).
example(e63,f5,negative).
example(e63,f6,positive).
example(e63,f7,negative).
example(e63,f8,negative).
example(e63,f9,positive).
example(e63,f10,negative).
example(e63,f11,positive).
example(e63,f12,negative).
example(e63,f13,negative).
example(e63,f14,negative).
example(e63,f15,negative).
example(e63,f16,negative).
example(e63,f17,negative).
example(e63,f18,negative).
example(e64,f1,negative).
example(e64,f2,positive).
example(e64,f3,negative).
example(e64,f4,positive).
example(e64,f5,negative).
example(e64,f6,positive).
example(e64,f7,negative).
example(e64,f8,negative).
example(e64,f9,positive).
example(e64,f10,negative).
example(e64,f11,negative).
example(e64,f12,negative).
example(e64,f13,negative).
example(e64,f14,positive).
example(e64,f15,positive).
example(e64,f16,negative).
example(e64,f17,positive).
example(e64,f18,negative).
example(e65,f1,negative).
example(e65,f2,positive).
example(e65,f3,negative).
example(e65,f4,positive).
example(e65,f5,negative).
example(e65,f6,positive).
example(e65,f7,negative).
example(e65,f8,negative).
example(e65,f9,positive).
example(e65,f10,negative).
example(e65,f11,negative).
example(e65,f12,negative).
example(e65,f13,positive).
example(e65,f14,negative).
example(e65,f15,negative).
example(e65,f16,positive).
example(e65,f17,positive).
example(e65,f18,negative).
example(e66,f1,negative).
example(e66,f2,positive).
example(e66,f3,negative).
example(e66,f4,positive).
example(e66,f5,negative).
example(e66,f6,positive).
example(e66,f7,negative).
example(e66,f8,negative).
example(e66,f9,positive).
example(e66,f10,negative).
example(e66,f11,negative).
example(e66,f12,negative).
example(e66,f13,positive).
example(e66,f14,negative).
example(e66,f15,positive).
example(e66,f16,negative).
example(e66,f17,negative).
example(e66,f18,positive).
example(e67,f1,negative).
example(e67,f2,positive).
example(e67,f3,negative).
example(e67,f4,positive).
example(e67,f5,negative).
example(e67,f6,positive).
example(e67,f7,negative).
example(e67,f8,negative).
example(e67,f9,positive).
example(e67,f10,negative).
example(e67,f11,negative).
example(e67,f12,negative).
example(e67,f13,positive).
example(e67,f14,negative).
example(e67,f15,negative).
example(e67,f16,negative).
example(e67,f17,negative).
example(e67,f18,negative).
example(e68,f1,negative).
example(e68,f2,positive).
example(e68,f3,negative).
example(e68,f4,positive).
example(e68,f5,negative).
example(e68,f6,positive).
example(e68,f7,negative).
example(e68,f8,negative).
example(e68,f9,positive).
example(e68,f10,negative).
example(e68,f11,negative).
example(e68,f12,negative).
example(e68,f13,negative).
example(e68,f14,negative).
example(e68,f15,positive).
example(e68,f16,negative).
example(e68,f17,negative).
example(e68,f18,negative).
example(e69,f1,negative).
example(e69,f2,positive).
example(e69,f3,negative).
example(e69,f4,positive).
example(e69,f5,negative).
example(e69,f6,positive).
example(e69,f7,negative).
example(e69,f8,negative).
example(e69,f9,positive).
example(e69,f10,negative).
example(e69,f11,negative).
example(e69,f12,negative).
example(e69,f13,negative).
example(e69,f14,negative).
example(e69,f15,negative).
example(e69,f16,negative).
example(e69,f17,positive).
example(e69,f18,negative).
example(e70,f1,negative).
example(e70,f2,positive).
example(e70,f3,negative).
example(e70,f4,positive).
example(e70,f5,negative).
example(e70,f6,positive).
example(e70,f7,negative).
example(e70,f8,negative).
example(e70,f9,negative).
example(e70,f10,negative).
example(e70,f11,positive).
example(e70,f12,negative).
example(e70,f13,negative).
example(e70,f14,positive).
example(e70,f15,positive).
example(e70,f16,negative).
example(e70,f17,positive).
example(e70,f18,negative).
example(e71,f1,negative).
example(e71,f2,positive).
example(e71,f3,negative).
example(e71,f4,positive).
example(e71,f5,negative).
example(e71,f6,positive).
example(e71,f7,negative).
example(e71,f8,negative).
example(e71,f9,negative).
example(e71,f10,negative).
example(e71,f11,positive).
example(e71,f12,negative).
example(e71,f13,positive).
example(e71,f14,negative).
example(e71,f15,negative).
example(e71,f16,positive).
example(e71,f17,positive).
example(e71,f18,negative).
example(e72,f1,negative).
example(e72,f2,positive).
example(e72,f3,negative).
example(e72,f4,positive).
example(e72,f5,negative).
example(e72,f6,positive).
example(e72,f7,negative).
example(e72,f8,negative).
example(e72,f9,negative).
example(e72,f10,negative).
example(e72,f11,positive).
example(e72,f12,negative).
example(e72,f13,positive).
example(e72,f14,negative).
example(e72,f15,positive).
example(e72,f16,negative).
example(e72,f17,negative).
example(e72,f18,positive).
example(e73,f1,negative).
example(e73,f2,positive).
example(e73,f3,negative).
example(e73,f4,positive).
example(e73,f5,negative).
example(e73,f6,positive).
example(e73,f7,negative).
example(e73,f8,negative).
example(e73,f9,negative).
example(e73,f10,negative).
example(e73,f11,positive).
example(e73,f12,negative).
example(e73,f13,positive).
example(e73,f14,negative).
example(e73,f15,negative).
example(e73,f16,negative).
example(e73,f17,negative).
example(e73,f18,negative).
example(e74,f1,negative).
example(e74,f2,positive).
example(e74,f3,negative).
example(e74,f4,positive).
example(e74,f5,negative).
example(e74,f6,positive).
example(e74,f7,negative).
example(e74,f8,negative).
example(e74,f9,negative).
example(e74,f10,negative).
example(e74,f11,positive).
example(e74,f12,negative).
example(e74,f13,negative).
example(e74,f14,negative).
example(e74,f15,positive).
example(e74,f16,negative).
example(e74,f17,negative).
example(e74,f18,negative).
example(e75,f1,negative).
example(e75,f2,positive).
example(e75,f3,negative).
example(e75,f4,positive).
example(e75,f5,negative).
example(e75,f6,positive).
example(e75,f7,negative).
example(e75,f8,negative).
example(e75,f9,negative).
example(e75,f10,negative).
example(e75,f11,positive).
example(e75,f12,negative).
example(e75,f13,negative).
example(e75,f14,negative).
example(e75,f15,negative).
example(e75,f16,negative).
example(e75,f17,positive).
example(e75,f18,negative).
example(e76,f1,negative).
example(e76,f2,positive).
example(e76,f3,negative).
example(e76,f4,positive).
example(e76,f5,negative).
example(e76,f6,positive).
example(e76,f7,negative).
example(e76,f8,negative).
example(e76,f9,negative).
example(e76,f10,negative).
example(e76,f11,negative).
example(e76,f12,negative).
example(e76,f13,positive).
example(e76,f14,negative).
example(e76,f15,positive).
example(e76,f16,negative).
example(e76,f17,negative).
example(e76,f18,negative).
example(e77,f1,negative).
example(e77,f2,positive).
example(e77,f3,negative).
example(e77,f4,positive).
example(e77,f5,negative).
example(e77,f6,positive).
example(e77,f7,negative).
example(e77,f8,negative).
example(e77,f9,negative).
example(e77,f10,negative).
example(e77,f11,negative).
example(e77,f12,negative).
example(e77,f13,positive).
example(e77,f14,negative).
example(e77,f15,negative).
example(e77,f16,negative).
example(e77,f17,positive).
example(e77,f18,negative).
example(e78,f1,negative).
example(e78,f2,positive).
example(e78,f3,negative).
example(e78,f4,positive).
example(e78,f5,negative).
example(e78,f6,positive).
example(e78,f7,negative).
example(e78,f8,negative).
example(e78,f9,negative).
example(e78,f10,negative).
example(e78,f11,negative).
example(e78,f12,negative).
example(e78,f13,negative).
example(e78,f14,negative).
example(e78,f15,positive).
example(e78,f16,negative).
example(e78,f17,positive).
example(e78,f18,negative).
example(e79,f1,negative).
example(e79,f2,positive).
example(e79,f3,negative).
example(e79,f4,positive).
example(e79,f5,positive).
example(e79,f6,negative).
example(e79,f7,negative).
example(e79,f8,positive).
example(e79,f9,negative).
example(e79,f10,positive).
example(e79,f11,positive).
example(e79,f12,negative).
example(e79,f13,positive).
example(e79,f14,negative).
example(e79,f15,positive).
example(e79,f16,negative).
example(e79,f17,negative).
example(e79,f18,positive).
example(e80,f1,negative).
example(e80,f2,positive).
example(e80,f3,negative).
example(e80,f4,positive).
example(e80,f5,positive).
example(e80,f6,negative).
example(e80,f7,negative).
example(e80,f8,positive).
example(e80,f9,positive).
example(e80,f10,negative).
example(e80,f11,negative).
example(e80,f12,positive).
example(e80,f13,negative).
example(e80,f14,positive).
example(e80,f15,positive).
example(e80,f16,negative).
example(e80,f17,positive).
example(e80,f18,negative).
example(e81,f1,negative).
example(e81,f2,positive).
example(e81,f3,negative).
example(e81,f4,positive).
example(e81,f5,positive).
example(e81,f6,negative).
example(e81,f7,negative).
example(e81,f8,positive).
example(e81,f9,positive).
example(e81,f10,negative).
example(e81,f11,positive).
example(e81,f12,negative).
example(e81,f13,negative).
example(e81,f14,positive).
example(e81,f15,positive).
example(e81,f16,negative).
example(e81,f17,negative).
example(e81,f18,positive).
example(e82,f1,negative).
example(e82,f2,positive).
example(e82,f3,negative).
example(e82,f4,positive).
example(e82,f5,positive).
example(e82,f6,negative).
example(e82,f7,negative).
example(e82,f8,positive).
example(e82,f9,positive).
example(e82,f10,negative).
example(e82,f11,positive).
example(e82,f12,negative).
example(e82,f13,negative).
example(e82,f14,positive).
example(e82,f15,negative).
example(e82,f16,negative).
example(e82,f17,negative).
example(e82,f18,negative).
example(e83,f1,negative).
example(e83,f2,positive).
example(e83,f3,negative).
example(e83,f4,positive).
example(e83,f5,positive).
example(e83,f6,negative).
example(e83,f7,negative).
example(e83,f8,positive).
example(e83,f9,positive).
example(e83,f10,negative).
example(e83,f11,negative).
example(e83,f12,negative).
example(e83,f13,negative).
example(e83,f14,positive).
example(e83,f15,positive).
example(e83,f16,negative).
example(e83,f17,negative).
example(e83,f18,negative).
example(e84,f1,negative).
example(e84,f2,positive).
example(e84,f3,negative).
example(e84,f4,positive).
example(e84,f5,positive).
example(e84,f6,negative).
example(e84,f7,negative).
example(e84,f8,positive).
example(e84,f9,positive).
example(e84,f10,negative).
example(e84,f11,negative).
example(e84,f12,negative).
example(e84,f13,negative).
example(e84,f14,positive).
example(e84,f15,negative).
example(e84,f16,negative).
example(e84,f17,positive).
example(e84,f18,negative).
example(e85,f1,negative).
example(e85,f2,positive).
example(e85,f3,negative).
example(e85,f4,positive).
example(e85,f5,positive).
example(e85,f6,negative).
example(e85,f7,negative).
example(e85,f8,positive).
example(e85,f9,negative).
example(e85,f10,negative).
example(e85,f11,positive).
example(e85,f12,negative).
example(e85,f13,negative).
example(e85,f14,positive).
example(e85,f15,positive).
example(e85,f16,negative).
example(e85,f17,negative).
example(e85,f18,negative).
example(e86,f1,negative).
example(e86,f2,positive).
example(e86,f3,negative).
example(e86,f4,positive).
example(e86,f5,positive).
example(e86,f6,negative).
example(e86,f7,negative).
example(e86,f8,positive).
example(e86,f9,negative).
example(e86,f10,negative).
example(e86,f11,negative).
example(e86,f12,negative).
example(e86,f13,negative).
example(e86,f14,positive).
example(e86,f15,positive).
example(e86,f16,negative).
example(e86,f17,positive).
example(e86,f18,negative).
example(e87,f1,negative).
example(e87,f2,positive).
example(e87,f3,negative).
example(e87,f4,positive).
example(e87,f5,positive).
example(e87,f6,negative).
example(e87,f7,positive).
example(e87,f8,negative).
example(e87,f9,negative).
example(e87,f10,positive).
example(e87,f11,negative).
example(e87,f12,positive).
example(e87,f13,positive).
example(e87,f14,negative).
example(e87,f15,negative).
example(e87,f16,positive).
example(e87,f17,positive).
example(e87,f18,negative).
example(e88,f1,negative).
example(e88,f2,positive).
example(e88,f3,negative).
example(e88,f4,positive).
example(e88,f5,positive).
example(e88,f6,negative).
example(e88,f7,positive).
example(e88,f8,negative).
example(e88,f9,negative).
example(e88,f10,positive).
example(e88,f11,negative).
example(e88,f12,positive).
example(e88,f13,positive).
example(e88,f14,negative).
example(e88,f15,positive).
example(e88,f16,negative).
example(e88,f17,negative).
example(e88,f18,positive).
example(e89,f1,negative).
example(e89,f2,positive).
example(e89,f3,negative).
example(e89,f4,positive).
example(e89,f5,positive).
example(e89,f6,negative).
example(e89,f7,positive).
example(e89,f8,negative).
example(e89,f9,negative).
example(e89,f10,positive).
example(e89,f11,positive).
example(e89,f12,negative).
example(e89,f13,negative).
example(e89,f14,positive).
example(e89,f15,positive).
example(e89,f16,negative).
example(e89,f17,negative).
example(e89,f18,positive).
example(e90,f1,negative).
example(e90,f2,positive).
example(e90,f3,negative).
example(e90,f4,positive).
example(e90,f5,positive).
example(e90,f6,negative).
example(e90,f7,positive).
example(e90,f8,negative).
example(e90,f9,negative).
example(e90,f10,positive).
example(e90,f11,positive).
example(e90,f12,negative).
example(e90,f13,positive).
example(e90,f14,negative).
example(e90,f15,negative).
example(e90,f16,positive).
example(e90,f17,negative).
example(e90,f18,positive).
example(e91,f1,negative).
example(e91,f2,positive).
example(e91,f3,negative).
example(e91,f4,positive).
example(e91,f5,positive).
example(e91,f6,negative).
example(e91,f7,positive).
example(e91,f8,negative).
example(e91,f9,negative).
example(e91,f10,positive).
example(e91,f11,positive).
example(e91,f12,negative).
example(e91,f13,negative).
example(e91,f14,negative).
example(e91,f15,negative).
example(e91,f16,positive).
example(e91,f17,negative).
example(e91,f18,negative).
example(e92,f1,negative).
example(e92,f2,positive).
example(e92,f3,negative).
example(e92,f4,positive).
example(e92,f5,positive).
example(e92,f6,negative).
example(e92,f7,positive).
example(e92,f8,negative).
example(e92,f9,negative).
example(e92,f10,positive).
example(e92,f11,positive).
example(e92,f12,negative).
example(e92,f13,negative).
example(e92,f14,negative).
example(e92,f15,negative).
example(e92,f16,negative).
example(e92,f17,negative).
example(e92,f18,positive).
example(e93,f1,negative).
example(e93,f2,positive).
example(e93,f3,negative).
example(e93,f4,positive).
example(e93,f5,positive).
example(e93,f6,negative).
example(e93,f7,positive).
example(e93,f8,negative).
example(e93,f9,negative).
example(e93,f10,positive).
example(e93,f11,negative).
example(e93,f12,negative).
example(e93,f13,positive).
example(e93,f14,negative).
example(e93,f15,negative).
example(e93,f16,positive).
example(e93,f17,negative).
example(e93,f18,negative).
example(e94,f1,negative).
example(e94,f2,positive).
example(e94,f3,negative).
example(e94,f4,positive).
example(e94,f5,positive).
example(e94,f6,negative).
example(e94,f7,positive).
example(e94,f8,negative).
example(e94,f9,negative).
example(e94,f10,positive).
example(e94,f11,negative).
example(e94,f12,negative).
example(e94,f13,positive).
example(e94,f14,negative).
example(e94,f15,negative).
example(e94,f16,negative).
example(e94,f17,negative).
example(e94,f18,positive).
example(e95,f1,negative).
example(e95,f2,positive).
example(e95,f3,negative).
example(e95,f4,positive).
example(e95,f5,positive).
example(e95,f6,negative).
example(e95,f7,positive).
example(e95,f8,negative).
example(e95,f9,negative).
example(e95,f10,positive).
example(e95,f11,negative).
example(e95,f12,negative).
example(e95,f13,negative).
example(e95,f14,negative).
example(e95,f15,negative).
example(e95,f16,positive).
example(e95,f17,positive).
example(e95,f18,negative).
example(e96,f1,negative).
example(e96,f2,positive).
example(e96,f3,negative).
example(e96,f4,positive).
example(e96,f5,positive).
example(e96,f6,negative).
example(e96,f7,positive).
example(e96,f8,negative).
example(e96,f9,negative).
example(e96,f10,positive).
example(e96,f11,negative).
example(e96,f12,negative).
example(e96,f13,negative).
example(e96,f14,negative).
example(e96,f15,positive).
example(e96,f16,negative).
example(e96,f17,negative).
example(e96,f18,positive).
example(e97,f1,negative).
example(e97,f2,positive).
example(e97,f3,negative).
example(e97,f4,positive).
example(e97,f5,positive).
example(e97,f6,negative).
example(e97,f7,negative).
example(e97,f8,negative).
example(e97,f9,negative).
example(e97,f10,positive).
example(e97,f11,positive).
example(e97,f12,negative).
example(e97,f13,positive).
example(e97,f14,negative).
example(e97,f15,negative).
example(e97,f16,positive).
example(e97,f17,negative).
example(e97,f18,negative).
example(e98,f1,negative).
example(e98,f2,positive).
example(e98,f3,negative).
example(e98,f4,positive).
example(e98,f5,positive).
example(e98,f6,negative).
example(e98,f7,negative).
example(e98,f8,negative).
example(e98,f9,negative).
example(e98,f10,positive).
example(e98,f11,positive).
example(e98,f12,negative).
example(e98,f13,positive).
example(e98,f14,negative).
example(e98,f15,negative).
example(e98,f16,negative).
example(e98,f17,negative).
example(e98,f18,positive).
example(e99,f1,negative).
example(e99,f2,positive).
example(e99,f3,negative).
example(e99,f4,positive).
example(e99,f5,positive).
example(e99,f6,negative).
example(e99,f7,negative).
example(e99,f8,negative).
example(e99,f9,negative).
example(e99,f10,positive).
example(e99,f11,positive).
example(e99,f12,negative).
example(e99,f13,negative).
example(e99,f14,negative).
example(e99,f15,positive).
example(e99,f16,negative).
example(e99,f17,negative).
example(e99,f18,positive).
example(e100,f1,negative).
example(e100,f2,positive).
example(e100,f3,negative).
example(e100,f4,positive).
example(e100,f5,positive).
example(e100,f6,negative).
example(e100,f7,negative).
example(e100,f8,negative).
example(e100,f9,negative).
example(e100,f10,positive).
example(e100,f11,negative).
example(e100,f12,negative).
example(e100,f13,positive).
example(e100,f14,negative).
example(e100,f15,negative).
example(e100,f16,positive).
example(e100,f17,positive).
example(e100,f18,negative).
example(e101,f1,negative).
example(e101,f2,positive).
example(e101,f3,negative).
example(e101,f4,positive).
example(e101,f5,positive).
example(e101,f6,negative).
example(e101,f7,negative).
example(e101,f8,negative).
example(e101,f9,negative).
example(e101,f10,positive).
example(e101,f11,negative).
example(e101,f12,negative).
example(e101,f13,positive).
example(e101,f14,negative).
example(e101,f15,positive).
example(e101,f16,negative).
example(e101,f17,negative).
example(e101,f18,positive).
example(e102,f1,negative).
example(e102,f2,positive).
example(e102,f3,negative).
example(e102,f4,positive).
example(e102,f5,negative).
example(e102,f6,negative).
example(e102,f7,negative).
example(e102,f8,positive).
example(e102,f9,positive).
example(e102,f10,negative).
example(e102,f11,positive).
example(e102,f12,negative).
example(e102,f13,negative).
example(e102,f14,positive).
example(e102,f15,positive).
example(e102,f16,negative).
example(e102,f17,negative).
example(e102,f18,negative).
example(e103,f1,negative).
example(e103,f2,positive).
example(e103,f3,negative).
example(e103,f4,positive).
example(e103,f5,negative).
example(e103,f6,negative).
example(e103,f7,negative).
example(e103,f8,positive).
example(e103,f9,positive).
example(e103,f10,negative).
example(e103,f11,positive).
example(e103,f12,negative).
example(e103,f13,negative).
example(e103,f14,positive).
example(e103,f15,negative).
example(e103,f16,negative).
example(e103,f17,positive).
example(e103,f18,negative).
example(e104,f1,negative).
example(e104,f2,positive).
example(e104,f3,negative).
example(e104,f4,positive).
example(e104,f5,negative).
example(e104,f6,negative).
example(e104,f7,negative).
example(e104,f8,positive).
example(e104,f9,positive).
example(e104,f10,negative).
example(e104,f11,negative).
example(e104,f12,negative).
example(e104,f13,negative).
example(e104,f14,positive).
example(e104,f15,positive).
example(e104,f16,negative).
example(e104,f17,positive).
example(e104,f18,negative).
example(e105,f1,negative).
example(e105,f2,positive).
example(e105,f3,negative).
example(e105,f4,positive).
example(e105,f5,negative).
example(e105,f6,negative).
example(e105,f7,negative).
example(e105,f8,positive).
example(e105,f9,negative).
example(e105,f10,negative).
example(e105,f11,positive).
example(e105,f12,negative).
example(e105,f13,negative).
example(e105,f14,positive).
example(e105,f15,positive).
example(e105,f16,negative).
example(e105,f17,positive).
example(e105,f18,negative).
example(e106,f1,negative).
example(e106,f2,positive).
example(e106,f3,negative).
example(e106,f4,positive).
example(e106,f5,negative).
example(e106,f6,negative).
example(e106,f7,positive).
example(e106,f8,negative).
example(e106,f9,negative).
example(e106,f10,positive).
example(e106,f11,positive).
example(e106,f12,negative).
example(e106,f13,positive).
example(e106,f14,negative).
example(e106,f15,negative).
example(e106,f16,positive).
example(e106,f17,negative).
example(e106,f18,negative).
example(e107,f1,negative).
example(e107,f2,positive).
example(e107,f3,negative).
example(e107,f4,positive).
example(e107,f5,negative).
example(e107,f6,negative).
example(e107,f7,positive).
example(e107,f8,negative).
example(e107,f9,negative).
example(e107,f10,positive).
example(e107,f11,positive).
example(e107,f12,negative).
example(e107,f13,positive).
example(e107,f14,negative).
example(e107,f15,negative).
example(e107,f16,negative).
example(e107,f17,negative).
example(e107,f18,positive).
example(e108,f1,negative).
example(e108,f2,positive).
example(e108,f3,negative).
example(e108,f4,positive).
example(e108,f5,negative).
example(e108,f6,negative).
example(e108,f7,positive).
example(e108,f8,negative).
example(e108,f9,negative).
example(e108,f10,positive).
example(e108,f11,positive).
example(e108,f12,negative).
example(e108,f13,negative).
example(e108,f14,negative).
example(e108,f15,negative).
example(e108,f16,positive).
example(e108,f17,positive).
example(e108,f18,negative).
example(e109,f1,negative).
example(e109,f2,positive).
example(e109,f3,negative).
example(e109,f4,positive).
example(e109,f5,negative).
example(e109,f6,negative).
example(e109,f7,positive).
example(e109,f8,negative).
example(e109,f9,negative).
example(e109,f10,positive).
example(e109,f11,positive).
example(e109,f12,negative).
example(e109,f13,negative).
example(e109,f14,negative).
example(e109,f15,positive).
example(e109,f16,negative).
example(e109,f17,negative).
example(e109,f18,positive).
example(e110,f1,negative).
example(e110,f2,positive).
example(e110,f3,negative).
example(e110,f4,positive).
example(e110,f5,negative).
example(e110,f6,negative).
example(e110,f7,positive).
example(e110,f8,negative).
example(e110,f9,negative).
example(e110,f10,positive).
example(e110,f11,negative).
example(e110,f12,negative).
example(e110,f13,positive).
example(e110,f14,negative).
example(e110,f15,negative).
example(e110,f16,positive).
example(e110,f17,positive).
example(e110,f18,negative).
example(e111,f1,negative).
example(e111,f2,positive).
example(e111,f3,negative).
example(e111,f4,positive).
example(e111,f5,negative).
example(e111,f6,negative).
example(e111,f7,positive).
example(e111,f8,negative).
example(e111,f9,negative).
example(e111,f10,positive).
example(e111,f11,negative).
example(e111,f12,negative).
example(e111,f13,positive).
example(e111,f14,negative).
example(e111,f15,positive).
example(e111,f16,negative).
example(e111,f17,negative).
example(e111,f18,positive).
example(e112,f1,negative).
example(e112,f2,positive).
example(e112,f3,negative).
example(e112,f4,positive).
example(e112,f5,negative).
example(e112,f6,negative).
example(e112,f7,negative).
example(e112,f8,negative).
example(e112,f9,negative).
example(e112,f10,positive).
example(e112,f11,positive).
example(e112,f12,negative).
example(e112,f13,positive).
example(e112,f14,negative).
example(e112,f15,negative).
example(e112,f16,positive).
example(e112,f17,positive).
example(e112,f18,negative).
example(e113,f1,negative).
example(e113,f2,positive).
example(e113,f3,negative).
example(e113,f4,positive).
example(e113,f5,negative).
example(e113,f6,negative).
example(e113,f7,negative).
example(e113,f8,negative).
example(e113,f9,negative).
example(e113,f10,positive).
example(e113,f11,positive).
example(e113,f12,negative).
example(e113,f13,positive).
example(e113,f14,negative).
example(e113,f15,positive).
example(e113,f16,negative).
example(e113,f17,negative).
example(e113,f18,positive).
example(e114,f1,negative).
example(e114,f2,positive).
example(e114,f3,positive).
example(e114,f4,negative).
example(e114,f5,negative).
example(e114,f6,positive).
example(e114,f7,negative).
example(e114,f8,positive).
example(e114,f9,negative).
example(e114,f10,positive).
example(e114,f11,positive).
example(e114,f12,negative).
example(e114,f13,negative).
example(e114,f14,positive).
example(e114,f15,positive).
example(e114,f16,negative).
example(e114,f17,positive).
example(e114,f18,negative).
example(e115,f1,negative).
example(e115,f2,positive).
example(e115,f3,positive).
example(e115,f4,negative).
example(e115,f5,negative).
example(e115,f6,positive).
example(e115,f7,negative).
example(e115,f8,positive).
example(e115,f9,negative).
example(e115,f10,positive).
example(e115,f11,positive).
example(e115,f12,negative).
example(e115,f13,positive).
example(e115,f14,negative).
example(e115,f15,positive).
example(e115,f16,negative).
example(e115,f17,negative).
example(e115,f18,positive).
example(e116,f1,negative).
example(e116,f2,positive).
example(e116,f3,positive).
example(e116,f4,negative).
example(e116,f5,negative).
example(e116,f6,positive).
example(e116,f7,negative).
example(e116,f8,positive).
example(e116,f9,positive).
example(e116,f10,negative).
example(e116,f11,positive).
example(e116,f12,negative).
example(e116,f13,negative).
example(e116,f14,positive).
example(e116,f15,negative).
example(e116,f16,positive).
example(e116,f17,positive).
example(e116,f18,negative).
example(e117,f1,negative).
example(e117,f2,positive).
example(e117,f3,positive).
example(e117,f4,negative).
example(e117,f5,negative).
example(e117,f6,positive).
example(e117,f7,negative).
example(e117,f8,positive).
example(e117,f9,positive).
example(e117,f10,negative).
example(e117,f11,positive).
example(e117,f12,negative).
example(e117,f13,negative).
example(e117,f14,positive).
example(e117,f15,negative).
example(e117,f16,negative).
example(e117,f17,negative).
example(e117,f18,negative).
example(e118,f1,negative).
example(e118,f2,positive).
example(e118,f3,positive).
example(e118,f4,negative).
example(e118,f5,negative).
example(e118,f6,positive).
example(e118,f7,negative).
example(e118,f8,positive).
example(e118,f9,positive).
example(e118,f10,negative).
example(e118,f11,negative).
example(e118,f12,negative).
example(e118,f13,negative).
example(e118,f14,positive).
example(e118,f15,negative).
example(e118,f16,negative).
example(e118,f17,positive).
example(e118,f18,negative).
example(e119,f1,negative).
example(e119,f2,positive).
example(e119,f3,positive).
example(e119,f4,negative).
example(e119,f5,negative).
example(e119,f6,positive).
example(e119,f7,negative).
example(e119,f8,positive).
example(e119,f9,negative).
example(e119,f10,negative).
example(e119,f11,positive).
example(e119,f12,negative).
example(e119,f13,negative).
example(e119,f14,positive).
example(e119,f15,positive).
example(e119,f16,negative).
example(e119,f17,negative).
example(e119,f18,negative).
example(e120,f1,negative).
example(e120,f2,positive).
example(e120,f3,positive).
example(e120,f4,negative).
example(e120,f5,negative).
example(e120,f6,positive).
example(e120,f7,negative).
example(e120,f8,positive).
example(e120,f9,negative).
example(e120,f10,negative).
example(e120,f11,positive).
example(e120,f12,negative).
example(e120,f13,negative).
example(e120,f14,positive).
example(e120,f15,negative).
example(e120,f16,negative).
example(e120,f17,positive).
example(e120,f18,negative).
example(e121,f1,negative).
example(e121,f2,positive).
example(e121,f3,positive).
example(e121,f4,negative).
example(e121,f5,negative).
example(e121,f6,positive).
example(e121,f7,negative).
example(e121,f8,positive).
example(e121,f9,negative).
example(e121,f10,negative).
example(e121,f11,negative).
example(e121,f12,negative).
example(e121,f13,negative).
example(e121,f14,positive).
example(e121,f15,positive).
example(e121,f16,negative).
example(e121,f17,positive).
example(e121,f18,negative).
example(e122,f1,negative).
example(e122,f2,positive).
example(e122,f3,positive).
example(e122,f4,negative).
example(e122,f5,negative).
example(e122,f6,positive).
example(e122,f7,positive).
example(e122,f8,negative).
example(e122,f9,negative).
example(e122,f10,positive).
example(e122,f11,negative).
example(e122,f12,positive).
example(e122,f13,negative).
example(e122,f14,positive).
example(e122,f15,positive).
example(e122,f16,negative).
example(e122,f17,positive).
example(e122,f18,negative).
example(e123,f1,negative).
example(e123,f2,positive).
example(e123,f3,positive).
example(e123,f4,negative).
example(e123,f5,negative).
example(e123,f6,positive).
example(e123,f7,positive).
example(e123,f8,negative).
example(e123,f9,negative).
example(e123,f10,positive).
example(e123,f11,negative).
example(e123,f12,positive).
example(e123,f13,positive).
example(e123,f14,negative).
example(e123,f15,positive).
example(e123,f16,negative).
example(e123,f17,negative).
example(e123,f18,positive).
example(e124,f1,negative).
example(e124,f2,positive).
example(e124,f3,positive).
example(e124,f4,negative).
example(e124,f5,negative).
example(e124,f6,positive).
example(e124,f7,positive).
example(e124,f8,negative).
example(e124,f9,negative).
example(e124,f10,positive).
example(e124,f11,positive).
example(e124,f12,negative).
example(e124,f13,negative).
example(e124,f14,positive).
example(e124,f15,negative).
example(e124,f16,positive).
example(e124,f17,positive).
example(e124,f18,negative).
example(e125,f1,negative).
example(e125,f2,positive).
example(e125,f3,positive).
example(e125,f4,negative).
example(e125,f5,negative).
example(e125,f6,positive).
example(e125,f7,positive).
example(e125,f8,negative).
example(e125,f9,negative).
example(e125,f10,positive).
example(e125,f11,positive).
example(e125,f12,negative).
example(e125,f13,negative).
example(e125,f14,positive).
example(e125,f15,positive).
example(e125,f16,negative).
example(e125,f17,negative).
example(e125,f18,positive).
example(e126,f1,negative).
example(e126,f2,positive).
example(e126,f3,positive).
example(e126,f4,negative).
example(e126,f5,negative).
example(e126,f6,positive).
example(e126,f7,positive).
example(e126,f8,negative).
example(e126,f9,negative).
example(e126,f10,positive).
example(e126,f11,positive).
example(e126,f12,negative).
example(e126,f13,negative).
example(e126,f14,positive).
example(e126,f15,negative).
example(e126,f16,negative).
example(e126,f17,negative).
example(e126,f18,negative).
example(e127,f1,negative).
example(e127,f2,positive).
example(e127,f3,positive).
example(e127,f4,negative).
example(e127,f5,negative).
example(e127,f6,positive).
example(e127,f7,positive).
example(e127,f8,negative).
example(e127,f9,negative).
example(e127,f10,positive).
example(e127,f11,positive).
example(e127,f12,negative).
example(e127,f13,positive).
example(e127,f14,negative).
example(e127,f15,negative).
example(e127,f16,positive).
example(e127,f17,negative).
example(e127,f18,positive).
example(e128,f1,negative).
example(e128,f2,positive).
example(e128,f3,positive).
example(e128,f4,negative).
example(e128,f5,negative).
example(e128,f6,positive).
example(e128,f7,positive).
example(e128,f8,negative).
example(e128,f9,negative).
example(e128,f10,positive).
example(e128,f11,positive).
example(e128,f12,negative).
example(e128,f13,negative).
example(e128,f14,negative).
example(e128,f15,negative).
example(e128,f16,negative).
example(e128,f17,negative).
example(e128,f18,positive).
example(e129,f1,negative).
example(e129,f2,positive).
example(e129,f3,positive).
example(e129,f4,negative).
example(e129,f5,negative).
example(e129,f6,positive).
example(e129,f7,positive).
example(e129,f8,negative).
example(e129,f9,negative).
example(e129,f10,positive).
example(e129,f11,negative).
example(e129,f12,negative).
example(e129,f13,negative).
example(e129,f14,positive).
example(e129,f15,positive).
example(e129,f16,negative).
example(e129,f17,negative).
example(e129,f18,negative).
example(e130,f1,negative).
example(e130,f2,positive).
example(e130,f3,positive).
example(e130,f4,negative).
example(e130,f5,negative).
example(e130,f6,positive).
example(e130,f7,positive).
example(e130,f8,negative).
example(e130,f9,negative).
example(e130,f10,positive).
example(e130,f11,negative).
example(e130,f12,negative).
example(e130,f13,negative).
example(e130,f14,positive).
example(e130,f15,negative).
example(e130,f16,negative).
example(e130,f17,positive).
example(e130,f18,negative).
example(e131,f1,negative).
example(e131,f2,positive).
example(e131,f3,positive).
example(e131,f4,negative).
example(e131,f5,negative).
example(e131,f6,positive).
example(e131,f7,positive).
example(e131,f8,negative).
example(e131,f9,negative).
example(e131,f10,positive).
example(e131,f11,negative).
example(e131,f12,negative).
example(e131,f13,positive).
example(e131,f14,negative).
example(e131,f15,negative).
example(e131,f16,negative).
example(e131,f17,negative).
example(e131,f18,positive).
example(e132,f1,negative).
example(e132,f2,positive).
example(e132,f3,positive).
example(e132,f4,negative).
example(e132,f5,negative).
example(e132,f6,positive).
example(e132,f7,positive).
example(e132,f8,negative).
example(e132,f9,negative).
example(e132,f10,positive).
example(e132,f11,negative).
example(e132,f12,negative).
example(e132,f13,negative).
example(e132,f14,negative).
example(e132,f15,positive).
example(e132,f16,negative).
example(e132,f17,negative).
example(e132,f18,positive).
example(e133,f1,negative).
example(e133,f2,positive).
example(e133,f3,positive).
example(e133,f4,negative).
example(e133,f5,negative).
example(e133,f6,positive).
example(e133,f7,positive).
example(e133,f8,negative).
example(e133,f9,positive).
example(e133,f10,negative).
example(e133,f11,negative).
example(e133,f12,positive).
example(e133,f13,positive).
example(e133,f14,negative).
example(e133,f15,negative).
example(e133,f16,positive).
example(e133,f17,negative).
example(e133,f18,positive).
example(e134,f1,negative).
example(e134,f2,positive).
example(e134,f3,positive).
example(e134,f4,negative).
example(e134,f5,negative).
example(e134,f6,positive).
example(e134,f7,positive).
example(e134,f8,negative).
example(e134,f9,positive).
example(e134,f10,negative).
example(e134,f11,negative).
example(e134,f12,positive).
example(e134,f13,negative).
example(e134,f14,negative).
example(e134,f15,negative).
example(e134,f16,negative).
example(e134,f17,negative).
example(e134,f18,positive).
example(e135,f1,negative).
example(e135,f2,positive).
example(e135,f3,positive).
example(e135,f4,negative).
example(e135,f5,negative).
example(e135,f6,positive).
example(e135,f7,positive).
example(e135,f8,negative).
example(e135,f9,negative).
example(e135,f10,negative).
example(e135,f11,negative).
example(e135,f12,positive).
example(e135,f13,positive).
example(e135,f14,negative).
example(e135,f15,negative).
example(e135,f16,negative).
example(e135,f17,negative).
example(e135,f18,positive).
example(e136,f1,negative).
example(e136,f2,positive).
example(e136,f3,positive).
example(e136,f4,negative).
example(e136,f5,negative).
example(e136,f6,positive).
example(e136,f7,positive).
example(e136,f8,negative).
example(e136,f9,negative).
example(e136,f10,negative).
example(e136,f11,negative).
example(e136,f12,positive).
example(e136,f13,negative).
example(e136,f14,negative).
example(e136,f15,positive).
example(e136,f16,negative).
example(e136,f17,negative).
example(e136,f18,positive).
example(e137,f1,negative).
example(e137,f2,positive).
example(e137,f3,positive).
example(e137,f4,negative).
example(e137,f5,negative).
example(e137,f6,positive).
example(e137,f7,negative).
example(e137,f8,negative).
example(e137,f9,negative).
example(e137,f10,positive).
example(e137,f11,positive).
example(e137,f12,negative).
example(e137,f13,negative).
example(e137,f14,positive).
example(e137,f15,positive).
example(e137,f16,negative).
example(e137,f17,negative).
example(e137,f18,negative).
example(e138,f1,negative).
example(e138,f2,positive).
example(e138,f3,positive).
example(e138,f4,negative).
example(e138,f5,negative).
example(e138,f6,positive).
example(e138,f7,negative).
example(e138,f8,negative).
example(e138,f9,negative).
example(e138,f10,positive).
example(e138,f11,positive).
example(e138,f12,negative).
example(e138,f13,negative).
example(e138,f14,positive).
example(e138,f15,negative).
example(e138,f16,negative).
example(e138,f17,positive).
example(e138,f18,negative).
example(e139,f1,negative).
example(e139,f2,positive).
example(e139,f3,positive).
example(e139,f4,negative).
example(e139,f5,negative).
example(e139,f6,positive).
example(e139,f7,negative).
example(e139,f8,negative).
example(e139,f9,negative).
example(e139,f10,positive).
example(e139,f11,positive).
example(e139,f12,negative).
example(e139,f13,positive).
example(e139,f14,negative).
example(e139,f15,negative).
example(e139,f16,negative).
example(e139,f17,negative).
example(e139,f18,positive).
example(e140,f1,negative).
example(e140,f2,positive).
example(e140,f3,positive).
example(e140,f4,negative).
example(e140,f5,negative).
example(e140,f6,positive).
example(e140,f7,negative).
example(e140,f8,negative).
example(e140,f9,negative).
example(e140,f10,positive).
example(e140,f11,positive).
example(e140,f12,negative).
example(e140,f13,negative).
example(e140,f14,negative).
example(e140,f15,positive).
example(e140,f16,negative).
example(e140,f17,negative).
example(e140,f18,positive).
example(e141,f1,negative).
example(e141,f2,positive).
example(e141,f3,positive).
example(e141,f4,negative).
example(e141,f5,negative).
example(e141,f6,positive).
example(e141,f7,negative).
example(e141,f8,negative).
example(e141,f9,negative).
example(e141,f10,positive).
example(e141,f11,negative).
example(e141,f12,negative).
example(e141,f13,negative).
example(e141,f14,positive).
example(e141,f15,positive).
example(e141,f16,negative).
example(e141,f17,positive).
example(e141,f18,negative).
example(e142,f1,negative).
example(e142,f2,positive).
example(e142,f3,positive).
example(e142,f4,negative).
example(e142,f5,negative).
example(e142,f6,positive).
example(e142,f7,negative).
example(e142,f8,negative).
example(e142,f9,negative).
example(e142,f10,positive).
example(e142,f11,negative).
example(e142,f12,negative).
example(e142,f13,positive).
example(e142,f14,negative).
example(e142,f15,positive).
example(e142,f16,negative).
example(e142,f17,negative).
example(e142,f18,positive).
example(e143,f1,negative).
example(e143,f2,positive).
example(e143,f3,positive).
example(e143,f4,negative).
example(e143,f5,negative).
example(e143,f6,positive).
example(e143,f7,negative).
example(e143,f8,negative).
example(e143,f9,positive).
example(e143,f10,negative).
example(e143,f11,negative).
example(e143,f12,positive).
example(e143,f13,positive).
example(e143,f14,negative).
example(e143,f15,negative).
example(e143,f16,negative).
example(e143,f17,negative).
example(e143,f18,positive).
example(e144,f1,negative).
example(e144,f2,positive).
example(e144,f3,positive).
example(e144,f4,negative).
example(e144,f5,negative).
example(e144,f6,positive).
example(e144,f7,negative).
example(e144,f8,negative).
example(e144,f9,negative).
example(e144,f10,negative).
example(e144,f11,negative).
example(e144,f12,positive).
example(e144,f13,positive).
example(e144,f14,negative).
example(e144,f15,positive).
example(e144,f16,negative).
example(e144,f17,negative).
example(e144,f18,positive).
example(e145,f1,negative).
example(e145,f2,positive).
example(e145,f3,positive).
example(e145,f4,negative).
example(e145,f5,positive).
example(e145,f6,negative).
example(e145,f7,negative).
example(e145,f8,positive).
example(e145,f9,negative).
example(e145,f10,positive).
example(e145,f11,negative).
example(e145,f12,positive).
example(e145,f13,negative).
example(e145,f14,positive).
example(e145,f15,positive).
example(e145,f16,negative).
example(e145,f17,positive).
example(e145,f18,negative).
example(e146,f1,negative).
example(e146,f2,positive).
example(e146,f3,positive).
example(e146,f4,negative).
example(e146,f5,positive).
example(e146,f6,negative).
example(e146,f7,negative).
example(e146,f8,positive).
example(e146,f9,negative).
example(e146,f10,positive).
example(e146,f11,negative).
example(e146,f12,positive).
example(e146,f13,positive).
example(e146,f14,negative).
example(e146,f15,negative).
example(e146,f16,positive).
example(e146,f17,positive).
example(e146,f18,negative).
example(e147,f1,negative).
example(e147,f2,positive).
example(e147,f3,positive).
example(e147,f4,negative).
example(e147,f5,positive).
example(e147,f6,negative).
example(e147,f7,negative).
example(e147,f8,positive).
example(e147,f9,negative).
example(e147,f10,positive).
example(e147,f11,negative).
example(e147,f12,positive).
example(e147,f13,positive).
example(e147,f14,negative).
example(e147,f15,positive).
example(e147,f16,negative).
example(e147,f17,negative).
example(e147,f18,positive).
example(e148,f1,negative).
example(e148,f2,positive).
example(e148,f3,positive).
example(e148,f4,negative).
example(e148,f5,positive).
example(e148,f6,negative).
example(e148,f7,negative).
example(e148,f8,positive).
example(e148,f9,negative).
example(e148,f10,positive).
example(e148,f11,negative).
example(e148,f12,positive).
example(e148,f13,positive).
example(e148,f14,negative).
example(e148,f15,negative).
example(e148,f16,negative).
example(e148,f17,negative).
example(e148,f18,negative).
example(e149,f1,negative).
example(e149,f2,positive).
example(e149,f3,positive).
example(e149,f4,negative).
example(e149,f5,positive).
example(e149,f6,negative).
example(e149,f7,negative).
example(e149,f8,positive).
example(e149,f9,negative).
example(e149,f10,positive).
example(e149,f11,negative).
example(e149,f12,positive).
example(e149,f13,negative).
example(e149,f14,negative).
example(e149,f15,positive).
example(e149,f16,negative).
example(e149,f17,negative).
example(e149,f18,negative).
example(e150,f1,negative).
example(e150,f2,positive).
example(e150,f3,positive).
example(e150,f4,negative).
example(e150,f5,positive).
example(e150,f6,negative).
example(e150,f7,negative).
example(e150,f8,positive).
example(e150,f9,negative).
example(e150,f10,positive).
example(e150,f11,negative).
example(e150,f12,positive).
example(e150,f13,negative).
example(e150,f14,negative).
example(e150,f15,negative).
example(e150,f16,negative).
example(e150,f17,positive).
example(e150,f18,negative).
example(e151,f1,negative).
example(e151,f2,positive).
example(e151,f3,positive).
example(e151,f4,negative).
example(e151,f5,positive).
example(e151,f6,negative).
example(e151,f7,negative).
example(e151,f8,positive).
example(e151,f9,negative).
example(e151,f10,positive).
example(e151,f11,positive).
example(e151,f12,negative).
example(e151,f13,negative).
example(e151,f14,positive).
example(e151,f15,positive).
example(e151,f16,negative).
example(e151,f17,negative).
example(e151,f18,positive).
example(e152,f1,negative).
example(e152,f2,positive).
example(e152,f3,positive).
example(e152,f4,negative).
example(e152,f5,positive).
example(e152,f6,negative).
example(e152,f7,negative).
example(e152,f8,positive).
example(e152,f9,negative).
example(e152,f10,positive).
example(e152,f11,positive).
example(e152,f12,negative).
example(e152,f13,negative).
example(e152,f14,positive).
example(e152,f15,negative).
example(e152,f16,negative).
example(e152,f17,negative).
example(e152,f18,negative).
example(e153,f1,negative).
example(e153,f2,positive).
example(e153,f3,positive).
example(e153,f4,negative).
example(e153,f5,positive).
example(e153,f6,negative).
example(e153,f7,negative).
example(e153,f8,positive).
example(e153,f9,negative).
example(e153,f10,positive).
example(e153,f11,positive).
example(e153,f12,negative).
example(e153,f13,positive).
example(e153,f14,negative).
example(e153,f15,negative).
example(e153,f16,positive).
example(e153,f17,negative).
example(e153,f18,positive).
example(e154,f1,negative).
example(e154,f2,positive).
example(e154,f3,positive).
example(e154,f4,negative).
example(e154,f5,positive).
example(e154,f6,negative).
example(e154,f7,negative).
example(e154,f8,positive).
example(e154,f9,negative).
example(e154,f10,positive).
example(e154,f11,positive).
example(e154,f12,negative).
example(e154,f13,negative).
example(e154,f14,negative).
example(e154,f15,negative).
example(e154,f16,negative).
example(e154,f17,negative).
example(e154,f18,positive).
example(e155,f1,negative).
example(e155,f2,positive).
example(e155,f3,positive).
example(e155,f4,negative).
example(e155,f5,positive).
example(e155,f6,negative).
example(e155,f7,negative).
example(e155,f8,positive).
example(e155,f9,negative).
example(e155,f10,positive).
example(e155,f11,negative).
example(e155,f12,negative).
example(e155,f13,negative).
example(e155,f14,positive).
example(e155,f15,positive).
example(e155,f16,negative).
example(e155,f17,negative).
example(e155,f18,negative).
example(e156,f1,negative).
example(e156,f2,positive).
example(e156,f3,positive).
example(e156,f4,negative).
example(e156,f5,positive).
example(e156,f6,negative).
example(e156,f7,negative).
example(e156,f8,positive).
example(e156,f9,negative).
example(e156,f10,positive).
example(e156,f11,negative).
example(e156,f12,negative).
example(e156,f13,negative).
example(e156,f14,positive).
example(e156,f15,negative).
example(e156,f16,negative).
example(e156,f17,positive).
example(e156,f18,negative).
example(e157,f1,negative).
example(e157,f2,positive).
example(e157,f3,positive).
example(e157,f4,negative).
example(e157,f5,positive).
example(e157,f6,negative).
example(e157,f7,negative).
example(e157,f8,positive).
example(e157,f9,negative).
example(e157,f10,positive).
example(e157,f11,negative).
example(e157,f12,negative).
example(e157,f13,positive).
example(e157,f14,negative).
example(e157,f15,negative).
example(e157,f16,negative).
example(e157,f17,negative).
example(e157,f18,positive).
example(e158,f1,negative).
example(e158,f2,positive).
example(e158,f3,positive).
example(e158,f4,negative).
example(e158,f5,positive).
example(e158,f6,negative).
example(e158,f7,negative).
example(e158,f8,positive).
example(e158,f9,negative).
example(e158,f10,positive).
example(e158,f11,negative).
example(e158,f12,negative).
example(e158,f13,negative).
example(e158,f14,negative).
example(e158,f15,positive).
example(e158,f16,negative).
example(e158,f17,negative).
example(e158,f18,positive).
example(e159,f1,negative).
example(e159,f2,positive).
example(e159,f3,positive).
example(e159,f4,negative).
example(e159,f5,positive).
example(e159,f6,negative).
example(e159,f7,negative).
example(e159,f8,positive).
example(e159,f9,positive).
example(e159,f10,negative).
example(e159,f11,negative).
example(e159,f12,positive).
example(e159,f13,negative).
example(e159,f14,positive).
example(e159,f15,negative).
example(e159,f16,positive).
example(e159,f17,positive).
example(e159,f18,negative).
example(e160,f1,negative).
example(e160,f2,positive).
example(e160,f3,positive).
example(e160,f4,negative).
example(e160,f5,positive).
example(e160,f6,negative).
example(e160,f7,negative).
example(e160,f8,positive).
example(e160,f9,positive).
example(e160,f10,negative).
example(e160,f11,negative).
example(e160,f12,positive).
example(e160,f13,negative).
example(e160,f14,positive).
example(e160,f15,negative).
example(e160,f16,negative).
example(e160,f17,negative).
example(e160,f18,negative).
example(e161,f1,negative).
example(e161,f2,positive).
example(e161,f3,positive).
example(e161,f4,negative).
example(e161,f5,positive).
example(e161,f6,negative).
example(e161,f7,negative).
example(e161,f8,positive).
example(e161,f9,positive).
example(e161,f10,negative).
example(e161,f11,positive).
example(e161,f12,negative).
example(e161,f13,negative).
example(e161,f14,positive).
example(e161,f15,negative).
example(e161,f16,positive).
example(e161,f17,negative).
example(e161,f18,positive).
example(e162,f1,negative).
example(e162,f2,positive).
example(e162,f3,positive).
example(e162,f4,negative).
example(e162,f5,positive).
example(e162,f6,negative).
example(e162,f7,negative).
example(e162,f8,positive).
example(e162,f9,positive).
example(e162,f10,negative).
example(e162,f11,negative).
example(e162,f12,negative).
example(e162,f13,negative).
example(e162,f14,positive).
example(e162,f15,negative).
example(e162,f16,positive).
example(e162,f17,negative).
example(e162,f18,negative).
example(e163,f1,negative).
example(e163,f2,positive).
example(e163,f3,positive).
example(e163,f4,negative).
example(e163,f5,positive).
example(e163,f6,negative).
example(e163,f7,negative).
example(e163,f8,positive).
example(e163,f9,positive).
example(e163,f10,negative).
example(e163,f11,negative).
example(e163,f12,negative).
example(e163,f13,negative).
example(e163,f14,positive).
example(e163,f15,negative).
example(e163,f16,negative).
example(e163,f17,negative).
example(e163,f18,positive).
example(e164,f1,negative).
example(e164,f2,positive).
example(e164,f3,positive).
example(e164,f4,negative).
example(e164,f5,positive).
example(e164,f6,negative).
example(e164,f7,negative).
example(e164,f8,positive).
example(e164,f9,negative).
example(e164,f10,negative).
example(e164,f11,negative).
example(e164,f12,positive).
example(e164,f13,negative).
example(e164,f14,positive).
example(e164,f15,positive).
example(e164,f16,negative).
example(e164,f17,negative).
example(e164,f18,negative).
example(e165,f1,negative).
example(e165,f2,positive).
example(e165,f3,positive).
example(e165,f4,negative).
example(e165,f5,positive).
example(e165,f6,negative).
example(e165,f7,negative).
example(e165,f8,positive).
example(e165,f9,negative).
example(e165,f10,negative).
example(e165,f11,negative).
example(e165,f12,positive).
example(e165,f13,negative).
example(e165,f14,positive).
example(e165,f15,negative).
example(e165,f16,negative).
example(e165,f17,positive).
example(e165,f18,negative).
example(e166,f1,negative).
example(e166,f2,positive).
example(e166,f3,positive).
example(e166,f4,negative).
example(e166,f5,positive).
example(e166,f6,negative).
example(e166,f7,negative).
example(e166,f8,positive).
example(e166,f9,negative).
example(e166,f10,negative).
example(e166,f11,positive).
example(e166,f12,negative).
example(e166,f13,negative).
example(e166,f14,positive).
example(e166,f15,negative).
example(e166,f16,positive).
example(e166,f17,negative).
example(e166,f18,negative).
example(e167,f1,negative).
example(e167,f2,positive).
example(e167,f3,positive).
example(e167,f4,negative).
example(e167,f5,positive).
example(e167,f6,negative).
example(e167,f7,negative).
example(e167,f8,positive).
example(e167,f9,negative).
example(e167,f10,negative).
example(e167,f11,positive).
example(e167,f12,negative).
example(e167,f13,negative).
example(e167,f14,positive).
example(e167,f15,negative).
example(e167,f16,negative).
example(e167,f17,negative).
example(e167,f18,positive).
example(e168,f1,negative).
example(e168,f2,positive).
example(e168,f3,positive).
example(e168,f4,negative).
example(e168,f5,positive).
example(e168,f6,negative).
example(e168,f7,negative).
example(e168,f8,positive).
example(e168,f9,negative).
example(e168,f10,negative).
example(e168,f11,negative).
example(e168,f12,negative).
example(e168,f13,negative).
example(e168,f14,positive).
example(e168,f15,negative).
example(e168,f16,positive).
example(e168,f17,positive).
example(e168,f18,negative).
example(e169,f1,negative).
example(e169,f2,positive).
example(e169,f3,positive).
example(e169,f4,negative).
example(e169,f5,positive).
example(e169,f6,negative).
example(e169,f7,negative).
example(e169,f8,positive).
example(e169,f9,negative).
example(e169,f10,negative).
example(e169,f11,negative).
example(e169,f12,negative).
example(e169,f13,negative).
example(e169,f14,positive).
example(e169,f15,positive).
example(e169,f16,negative).
example(e169,f17,negative).
example(e169,f18,positive).
example(e170,f1,negative).
example(e170,f2,positive).
example(e170,f3,positive).
example(e170,f4,negative).
example(e170,f5,positive).
example(e170,f6,negative).
example(e170,f7,negative).
example(e170,f8,positive).
example(e170,f9,negative).
example(e170,f10,negative).
example(e170,f11,negative).
example(e170,f12,negative).
example(e170,f13,negative).
example(e170,f14,positive).
example(e170,f15,negative).
example(e170,f16,negative).
example(e170,f17,negative).
example(e170,f18,negative).
example(e171,f1,negative).
example(e171,f2,positive).
example(e171,f3,positive).
example(e171,f4,negative).
example(e171,f5,positive).
example(e171,f6,negative).
example(e171,f7,positive).
example(e171,f8,negative).
example(e171,f9,negative).
example(e171,f10,positive).
example(e171,f11,negative).
example(e171,f12,positive).
example(e171,f13,negative).
example(e171,f14,positive).
example(e171,f15,positive).
example(e171,f16,negative).
example(e171,f17,negative).
example(e171,f18,positive).
example(e172,f1,negative).
example(e172,f2,positive).
example(e172,f3,positive).
example(e172,f4,negative).
example(e172,f5,positive).
example(e172,f6,negative).
example(e172,f7,positive).
example(e172,f8,negative).
example(e172,f9,negative).
example(e172,f10,positive).
example(e172,f11,negative).
example(e172,f12,positive).
example(e172,f13,positive).
example(e172,f14,negative).
example(e172,f15,negative).
example(e172,f16,positive).
example(e172,f17,negative).
example(e172,f18,positive).
example(e173,f1,negative).
example(e173,f2,positive).
example(e173,f3,positive).
example(e173,f4,negative).
example(e173,f5,positive).
example(e173,f6,negative).
example(e173,f7,positive).
example(e173,f8,negative).
example(e173,f9,negative).
example(e173,f10,positive).
example(e173,f11,negative).
example(e173,f12,positive).
example(e173,f13,negative).
example(e173,f14,negative).
example(e173,f15,negative).
example(e173,f16,negative).
example(e173,f17,negative).
example(e173,f18,positive).
example(e174,f1,negative).
example(e174,f2,positive).
example(e174,f3,positive).
example(e174,f4,negative).
example(e174,f5,positive).
example(e174,f6,negative).
example(e174,f7,positive).
example(e174,f8,negative).
example(e174,f9,negative).
example(e174,f10,positive).
example(e174,f11,positive).
example(e174,f12,negative).
example(e174,f13,negative).
example(e174,f14,positive).
example(e174,f15,negative).
example(e174,f16,positive).
example(e174,f17,negative).
example(e174,f18,positive).
example(e175,f1,negative).
example(e175,f2,positive).
example(e175,f3,positive).
example(e175,f4,negative).
example(e175,f5,positive).
example(e175,f6,negative).
example(e175,f7,positive).
example(e175,f8,negative).
example(e175,f9,negative).
example(e175,f10,positive).
example(e175,f11,negative).
example(e175,f12,negative).
example(e175,f13,negative).
example(e175,f14,positive).
example(e175,f15,negative).
example(e175,f16,negative).
example(e175,f17,negative).
example(e175,f18,positive).
example(e176,f1,negative).
example(e176,f2,positive).
example(e176,f3,positive).
example(e176,f4,negative).
example(e176,f5,positive).
example(e176,f6,negative).
example(e176,f7,positive).
example(e176,f8,negative).
example(e176,f9,negative).
example(e176,f10,positive).
example(e176,f11,negative).
example(e176,f12,negative).
example(e176,f13,negative).
example(e176,f14,negative).
example(e176,f15,negative).
example(e176,f16,positive).
example(e176,f17,negative).
example(e176,f18,positive).
example(e177,f1,negative).
example(e177,f2,positive).
example(e177,f3,positive).
example(e177,f4,negative).
example(e177,f5,positive).
example(e177,f6,negative).
example(e177,f7,positive).
example(e177,f8,negative).
example(e177,f9,positive).
example(e177,f10,negative).
example(e177,f11,negative).
example(e177,f12,positive).
example(e177,f13,negative).
example(e177,f14,positive).
example(e177,f15,negative).
example(e177,f16,positive).
example(e177,f17,negative).
example(e177,f18,positive).
example(e178,f1,negative).
example(e178,f2,positive).
example(e178,f3,positive).
example(e178,f4,negative).
example(e178,f5,positive).
example(e178,f6,negative).
example(e178,f7,positive).
example(e178,f8,negative).
example(e178,f9,negative).
example(e178,f10,negative).
example(e178,f11,negative).
example(e178,f12,negative).
example(e178,f13,negative).
example(e178,f14,positive).
example(e178,f15,negative).
example(e178,f16,positive).
example(e178,f17,negative).
example(e178,f18,positive).
example(e179,f1,negative).
example(e179,f2,positive).
example(e179,f3,positive).
example(e179,f4,negative).
example(e179,f5,positive).
example(e179,f6,negative).
example(e179,f7,negative).
example(e179,f8,negative).
example(e179,f9,negative).
example(e179,f10,positive).
example(e179,f11,negative).
example(e179,f12,positive).
example(e179,f13,positive).
example(e179,f14,negative).
example(e179,f15,negative).
example(e179,f16,negative).
example(e179,f17,negative).
example(e179,f18,positive).
example(e180,f1,negative).
example(e180,f2,positive).
example(e180,f3,positive).
example(e180,f4,negative).
example(e180,f5,positive).
example(e180,f6,negative).
example(e180,f7,negative).
example(e180,f8,negative).
example(e180,f9,negative).
example(e180,f10,positive).
example(e180,f11,negative).
example(e180,f12,positive).
example(e180,f13,negative).
example(e180,f14,negative).
example(e180,f15,positive).
example(e180,f16,negative).
example(e180,f17,negative).
example(e180,f18,positive).
example(e181,f1,negative).
example(e181,f2,positive).
example(e181,f3,positive).
example(e181,f4,negative).
example(e181,f5,positive).
example(e181,f6,negative).
example(e181,f7,negative).
example(e181,f8,negative).
example(e181,f9,negative).
example(e181,f10,positive).
example(e181,f11,positive).
example(e181,f12,negative).
example(e181,f13,negative).
example(e181,f14,positive).
example(e181,f15,negative).
example(e181,f16,negative).
example(e181,f17,negative).
example(e181,f18,positive).
example(e182,f1,negative).
example(e182,f2,positive).
example(e182,f3,positive).
example(e182,f4,negative).
example(e182,f5,positive).
example(e182,f6,negative).
example(e182,f7,negative).
example(e182,f8,negative).
example(e182,f9,negative).
example(e182,f10,positive).
example(e182,f11,positive).
example(e182,f12,negative).
example(e182,f13,negative).
example(e182,f14,negative).
example(e182,f15,negative).
example(e182,f16,positive).
example(e182,f17,negative).
example(e182,f18,positive).
example(e183,f1,negative).
example(e183,f2,positive).
example(e183,f3,positive).
example(e183,f4,negative).
example(e183,f5,positive).
example(e183,f6,negative).
example(e183,f7,negative).
example(e183,f8,negative).
example(e183,f9,negative).
example(e183,f10,positive).
example(e183,f11,negative).
example(e183,f12,negative).
example(e183,f13,negative).
example(e183,f14,positive).
example(e183,f15,positive).
example(e183,f16,negative).
example(e183,f17,negative).
example(e183,f18,positive).
example(e184,f1,negative).
example(e184,f2,positive).
example(e184,f3,positive).
example(e184,f4,negative).
example(e184,f5,positive).
example(e184,f6,negative).
example(e184,f7,negative).
example(e184,f8,negative).
example(e184,f9,negative).
example(e184,f10,positive).
example(e184,f11,negative).
example(e184,f12,negative).
example(e184,f13,positive).
example(e184,f14,negative).
example(e184,f15,negative).
example(e184,f16,positive).
example(e184,f17,negative).
example(e184,f18,positive).
example(e185,f1,negative).
example(e185,f2,positive).
example(e185,f3,positive).
example(e185,f4,negative).
example(e185,f5,positive).
example(e185,f6,negative).
example(e185,f7,negative).
example(e185,f8,negative).
example(e185,f9,negative).
example(e185,f10,positive).
example(e185,f11,negative).
example(e185,f12,negative).
example(e185,f13,negative).
example(e185,f14,negative).
example(e185,f15,negative).
example(e185,f16,negative).
example(e185,f17,negative).
example(e185,f18,positive).
example(e186,f1,negative).
example(e186,f2,positive).
example(e186,f3,positive).
example(e186,f4,negative).
example(e186,f5,positive).
example(e186,f6,negative).
example(e186,f7,negative).
example(e186,f8,negative).
example(e186,f9,positive).
example(e186,f10,negative).
example(e186,f11,negative).
example(e186,f12,negative).
example(e186,f13,negative).
example(e186,f14,positive).
example(e186,f15,negative).
example(e186,f16,positive).
example(e186,f17,negative).
example(e186,f18,positive).
example(e187,f1,negative).
example(e187,f2,positive).
example(e187,f3,positive).
example(e187,f4,negative).
example(e187,f5,positive).
example(e187,f6,negative).
example(e187,f7,negative).
example(e187,f8,negative).
example(e187,f9,negative).
example(e187,f10,negative).
example(e187,f11,positive).
example(e187,f12,negative).
example(e187,f13,negative).
example(e187,f14,positive).
example(e187,f15,negative).
example(e187,f16,positive).
example(e187,f17,negative).
example(e187,f18,positive).
example(e188,f1,negative).
example(e188,f2,positive).
example(e188,f3,positive).
example(e188,f4,negative).
example(e188,f5,negative).
example(e188,f6,negative).
example(e188,f7,negative).
example(e188,f8,positive).
example(e188,f9,negative).
example(e188,f10,positive).
example(e188,f11,negative).
example(e188,f12,positive).
example(e188,f13,positive).
example(e188,f14,negative).
example(e188,f15,positive).
example(e188,f16,negative).
example(e188,f17,negative).
example(e188,f18,negative).
example(e189,f1,negative).
example(e189,f2,positive).
example(e189,f3,positive).
example(e189,f4,negative).
example(e189,f5,negative).
example(e189,f6,negative).
example(e189,f7,negative).
example(e189,f8,positive).
example(e189,f9,negative).
example(e189,f10,positive).
example(e189,f11,negative).
example(e189,f12,positive).
example(e189,f13,positive).
example(e189,f14,negative).
example(e189,f15,negative).
example(e189,f16,negative).
example(e189,f17,positive).
example(e189,f18,negative).
example(e190,f1,negative).
example(e190,f2,positive).
example(e190,f3,positive).
example(e190,f4,negative).
example(e190,f5,negative).
example(e190,f6,negative).
example(e190,f7,negative).
example(e190,f8,positive).
example(e190,f9,negative).
example(e190,f10,positive).
example(e190,f11,negative).
example(e190,f12,positive).
example(e190,f13,negative).
example(e190,f14,negative).
example(e190,f15,positive).
example(e190,f16,negative).
example(e190,f17,positive).
example(e190,f18,negative).
example(e191,f1,negative).
example(e191,f2,positive).
example(e191,f3,positive).
example(e191,f4,negative).
example(e191,f5,negative).
example(e191,f6,negative).
example(e191,f7,negative).
example(e191,f8,positive).
example(e191,f9,negative).
example(e191,f10,positive).
example(e191,f11,positive).
example(e191,f12,negative).
example(e191,f13,negative).
example(e191,f14,positive).
example(e191,f15,positive).
example(e191,f16,negative).
example(e191,f17,negative).
example(e191,f18,negative).
example(e192,f1,negative).
example(e192,f2,positive).
example(e192,f3,positive).
example(e192,f4,negative).
example(e192,f5,negative).
example(e192,f6,negative).
example(e192,f7,negative).
example(e192,f8,positive).
example(e192,f9,negative).
example(e192,f10,positive).
example(e192,f11,positive).
example(e192,f12,negative).
example(e192,f13,negative).
example(e192,f14,positive).
example(e192,f15,negative).
example(e192,f16,negative).
example(e192,f17,positive).
example(e192,f18,negative).
example(e193,f1,negative).
example(e193,f2,positive).
example(e193,f3,positive).
example(e193,f4,negative).
example(e193,f5,negative).
example(e193,f6,negative).
example(e193,f7,negative).
example(e193,f8,positive).
example(e193,f9,negative).
example(e193,f10,positive).
example(e193,f11,positive).
example(e193,f12,negative).
example(e193,f13,positive).
example(e193,f14,negative).
example(e193,f15,negative).
example(e193,f16,negative).
example(e193,f17,negative).
example(e193,f18,positive).
example(e194,f1,negative).
example(e194,f2,positive).
example(e194,f3,positive).
example(e194,f4,negative).
example(e194,f5,negative).
example(e194,f6,negative).
example(e194,f7,negative).
example(e194,f8,positive).
example(e194,f9,negative).
example(e194,f10,positive).
example(e194,f11,positive).
example(e194,f12,negative).
example(e194,f13,negative).
example(e194,f14,negative).
example(e194,f15,positive).
example(e194,f16,negative).
example(e194,f17,negative).
example(e194,f18,positive).
example(e195,f1,negative).
example(e195,f2,positive).
example(e195,f3,positive).
example(e195,f4,negative).
example(e195,f5,negative).
example(e195,f6,negative).
example(e195,f7,negative).
example(e195,f8,positive).
example(e195,f9,negative).
example(e195,f10,positive).
example(e195,f11,negative).
example(e195,f12,negative).
example(e195,f13,negative).
example(e195,f14,positive).
example(e195,f15,positive).
example(e195,f16,negative).
example(e195,f17,positive).
example(e195,f18,negative).
example(e196,f1,negative).
example(e196,f2,positive).
example(e196,f3,positive).
example(e196,f4,negative).
example(e196,f5,negative).
example(e196,f6,negative).
example(e196,f7,negative).
example(e196,f8,positive).
example(e196,f9,negative).
example(e196,f10,positive).
example(e196,f11,negative).
example(e196,f12,negative).
example(e196,f13,positive).
example(e196,f14,negative).
example(e196,f15,positive).
example(e196,f16,negative).
example(e196,f17,negative).
example(e196,f18,positive).
example(e197,f1,negative).
example(e197,f2,positive).
example(e197,f3,positive).
example(e197,f4,negative).
example(e197,f5,negative).
example(e197,f6,negative).
example(e197,f7,negative).
example(e197,f8,positive).
example(e197,f9,positive).
example(e197,f10,negative).
example(e197,f11,negative).
example(e197,f12,positive).
example(e197,f13,negative).
example(e197,f14,positive).
example(e197,f15,negative).
example(e197,f16,negative).
example(e197,f17,positive).
example(e197,f18,negative).
example(e198,f1,negative).
example(e198,f2,positive).
example(e198,f3,positive).
example(e198,f4,negative).
example(e198,f5,negative).
example(e198,f6,negative).
example(e198,f7,negative).
example(e198,f8,positive).
example(e198,f9,positive).
example(e198,f10,negative).
example(e198,f11,positive).
example(e198,f12,negative).
example(e198,f13,negative).
example(e198,f14,positive).
example(e198,f15,negative).
example(e198,f16,positive).
example(e198,f17,negative).
example(e198,f18,negative).
example(e199,f1,negative).
example(e199,f2,positive).
example(e199,f3,positive).
example(e199,f4,negative).
example(e199,f5,negative).
example(e199,f6,negative).
example(e199,f7,negative).
example(e199,f8,positive).
example(e199,f9,positive).
example(e199,f10,negative).
example(e199,f11,positive).
example(e199,f12,negative).
example(e199,f13,negative).
example(e199,f14,positive).
example(e199,f15,negative).
example(e199,f16,negative).
example(e199,f17,negative).
example(e199,f18,positive).
example(e200,f1,negative).
example(e200,f2,positive).
example(e200,f3,positive).
example(e200,f4,negative).
example(e200,f5,negative).
example(e200,f6,negative).
example(e200,f7,negative).
example(e200,f8,positive).
example(e200,f9,positive).
example(e200,f10,negative).
example(e200,f11,negative).
example(e200,f12,negative).
example(e200,f13,negative).
example(e200,f14,positive).
example(e200,f15,negative).
example(e200,f16,positive).
example(e200,f17,positive).
example(e200,f18,negative).
example(e201,f1,negative).
example(e201,f2,positive).
example(e201,f3,positive).
example(e201,f4,negative).
example(e201,f5,negative).
example(e201,f6,negative).
example(e201,f7,negative).
example(e201,f8,positive).
example(e201,f9,positive).
example(e201,f10,negative).
example(e201,f11,negative).
example(e201,f12,negative).
example(e201,f13,negative).
example(e201,f14,positive).
example(e201,f15,negative).
example(e201,f16,negative).
example(e201,f17,negative).
example(e201,f18,negative).
example(e202,f1,negative).
example(e202,f2,positive).
example(e202,f3,positive).
example(e202,f4,negative).
example(e202,f5,negative).
example(e202,f6,negative).
example(e202,f7,negative).
example(e202,f8,positive).
example(e202,f9,negative).
example(e202,f10,negative).
example(e202,f11,negative).
example(e202,f12,positive).
example(e202,f13,negative).
example(e202,f14,positive).
example(e202,f15,positive).
example(e202,f16,negative).
example(e202,f17,positive).
example(e202,f18,negative).
example(e203,f1,negative).
example(e203,f2,positive).
example(e203,f3,positive).
example(e203,f4,negative).
example(e203,f5,negative).
example(e203,f6,negative).
example(e203,f7,negative).
example(e203,f8,positive).
example(e203,f9,negative).
example(e203,f10,negative).
example(e203,f11,positive).
example(e203,f12,negative).
example(e203,f13,negative).
example(e203,f14,positive).
example(e203,f15,negative).
example(e203,f16,positive).
example(e203,f17,positive).
example(e203,f18,negative).
example(e204,f1,negative).
example(e204,f2,positive).
example(e204,f3,positive).
example(e204,f4,negative).
example(e204,f5,negative).
example(e204,f6,negative).
example(e204,f7,negative).
example(e204,f8,positive).
example(e204,f9,negative).
example(e204,f10,negative).
example(e204,f11,positive).
example(e204,f12,negative).
example(e204,f13,negative).
example(e204,f14,positive).
example(e204,f15,positive).
example(e204,f16,negative).
example(e204,f17,negative).
example(e204,f18,positive).
example(e205,f1,negative).
example(e205,f2,positive).
example(e205,f3,positive).
example(e205,f4,negative).
example(e205,f5,negative).
example(e205,f6,negative).
example(e205,f7,negative).
example(e205,f8,positive).
example(e205,f9,negative).
example(e205,f10,negative).
example(e205,f11,positive).
example(e205,f12,negative).
example(e205,f13,negative).
example(e205,f14,positive).
example(e205,f15,negative).
example(e205,f16,negative).
example(e205,f17,negative).
example(e205,f18,negative).
example(e206,f1,negative).
example(e206,f2,positive).
example(e206,f3,positive).
example(e206,f4,negative).
example(e206,f5,negative).
example(e206,f6,negative).
example(e206,f7,negative).
example(e206,f8,positive).
example(e206,f9,negative).
example(e206,f10,negative).
example(e206,f11,negative).
example(e206,f12,negative).
example(e206,f13,negative).
example(e206,f14,positive).
example(e206,f15,positive).
example(e206,f16,negative).
example(e206,f17,negative).
example(e206,f18,negative).
example(e207,f1,negative).
example(e207,f2,positive).
example(e207,f3,positive).
example(e207,f4,negative).
example(e207,f5,negative).
example(e207,f6,negative).
example(e207,f7,negative).
example(e207,f8,positive).
example(e207,f9,negative).
example(e207,f10,negative).
example(e207,f11,negative).
example(e207,f12,negative).
example(e207,f13,negative).
example(e207,f14,positive).
example(e207,f15,negative).
example(e207,f16,negative).
example(e207,f17,positive).
example(e207,f18,negative).
example(e208,f1,negative).
example(e208,f2,positive).
example(e208,f3,positive).
example(e208,f4,negative).
example(e208,f5,negative).
example(e208,f6,negative).
example(e208,f7,positive).
example(e208,f8,negative).
example(e208,f9,negative).
example(e208,f10,positive).
example(e208,f11,negative).
example(e208,f12,positive).
example(e208,f13,positive).
example(e208,f14,negative).
example(e208,f15,negative).
example(e208,f16,negative).
example(e208,f17,negative).
example(e208,f18,positive).
example(e209,f1,negative).
example(e209,f2,positive).
example(e209,f3,positive).
example(e209,f4,negative).
example(e209,f5,negative).
example(e209,f6,negative).
example(e209,f7,positive).
example(e209,f8,negative).
example(e209,f9,negative).
example(e209,f10,positive).
example(e209,f11,negative).
example(e209,f12,positive).
example(e209,f13,negative).
example(e209,f14,negative).
example(e209,f15,positive).
example(e209,f16,negative).
example(e209,f17,negative).
example(e209,f18,positive).
example(e210,f1,negative).
example(e210,f2,positive).
example(e210,f3,positive).
example(e210,f4,negative).
example(e210,f5,negative).
example(e210,f6,negative).
example(e210,f7,positive).
example(e210,f8,negative).
example(e210,f9,negative).
example(e210,f10,positive).
example(e210,f11,positive).
example(e210,f12,negative).
example(e210,f13,negative).
example(e210,f14,positive).
example(e210,f15,negative).
example(e210,f16,negative).
example(e210,f17,negative).
example(e210,f18,positive).
example(e211,f1,negative).
example(e211,f2,positive).
example(e211,f3,positive).
example(e211,f4,negative).
example(e211,f5,negative).
example(e211,f6,negative).
example(e211,f7,positive).
example(e211,f8,negative).
example(e211,f9,negative).
example(e211,f10,positive).
example(e211,f11,positive).
example(e211,f12,negative).
example(e211,f13,negative).
example(e211,f14,negative).
example(e211,f15,negative).
example(e211,f16,positive).
example(e211,f17,negative).
example(e211,f18,positive).
example(e212,f1,negative).
example(e212,f2,positive).
example(e212,f3,positive).
example(e212,f4,negative).
example(e212,f5,negative).
example(e212,f6,negative).
example(e212,f7,positive).
example(e212,f8,negative).
example(e212,f9,negative).
example(e212,f10,positive).
example(e212,f11,negative).
example(e212,f12,negative).
example(e212,f13,negative).
example(e212,f14,positive).
example(e212,f15,positive).
example(e212,f16,negative).
example(e212,f17,negative).
example(e212,f18,positive).
example(e213,f1,negative).
example(e213,f2,positive).
example(e213,f3,positive).
example(e213,f4,negative).
example(e213,f5,negative).
example(e213,f6,negative).
example(e213,f7,positive).
example(e213,f8,negative).
example(e213,f9,negative).
example(e213,f10,positive).
example(e213,f11,negative).
example(e213,f12,negative).
example(e213,f13,positive).
example(e213,f14,negative).
example(e213,f15,negative).
example(e213,f16,positive).
example(e213,f17,negative).
example(e213,f18,positive).
example(e214,f1,negative).
example(e214,f2,positive).
example(e214,f3,positive).
example(e214,f4,negative).
example(e214,f5,negative).
example(e214,f6,negative).
example(e214,f7,positive).
example(e214,f8,negative).
example(e214,f9,negative).
example(e214,f10,positive).
example(e214,f11,negative).
example(e214,f12,negative).
example(e214,f13,negative).
example(e214,f14,negative).
example(e214,f15,negative).
example(e214,f16,negative).
example(e214,f17,negative).
example(e214,f18,positive).
example(e215,f1,negative).
example(e215,f2,positive).
example(e215,f3,positive).
example(e215,f4,negative).
example(e215,f5,negative).
example(e215,f6,negative).
example(e215,f7,positive).
example(e215,f8,negative).
example(e215,f9,positive).
example(e215,f10,negative).
example(e215,f11,negative).
example(e215,f12,negative).
example(e215,f13,negative).
example(e215,f14,positive).
example(e215,f15,negative).
example(e215,f16,positive).
example(e215,f17,negative).
example(e215,f18,positive).
example(e216,f1,negative).
example(e216,f2,positive).
example(e216,f3,positive).
example(e216,f4,negative).
example(e216,f5,negative).
example(e216,f6,negative).
example(e216,f7,positive).
example(e216,f8,negative).
example(e216,f9,negative).
example(e216,f10,negative).
example(e216,f11,positive).
example(e216,f12,negative).
example(e216,f13,negative).
example(e216,f14,positive).
example(e216,f15,negative).
example(e216,f16,positive).
example(e216,f17,negative).
example(e216,f18,positive).
example(e217,f1,negative).
example(e217,f2,positive).
example(e217,f3,positive).
example(e217,f4,negative).
example(e217,f5,negative).
example(e217,f6,negative).
example(e217,f7,negative).
example(e217,f8,negative).
example(e217,f9,negative).
example(e217,f10,positive).
example(e217,f11,negative).
example(e217,f12,positive).
example(e217,f13,positive).
example(e217,f14,negative).
example(e217,f15,positive).
example(e217,f16,negative).
example(e217,f17,negative).
example(e217,f18,positive).
example(e218,f1,negative).
example(e218,f2,positive).
example(e218,f3,positive).
example(e218,f4,negative).
example(e218,f5,negative).
example(e218,f6,negative).
example(e218,f7,negative).
example(e218,f8,negative).
example(e218,f9,negative).
example(e218,f10,positive).
example(e218,f11,positive).
example(e218,f12,negative).
example(e218,f13,negative).
example(e218,f14,positive).
example(e218,f15,positive).
example(e218,f16,negative).
example(e218,f17,negative).
example(e218,f18,positive).
example(e219,f1,negative).
example(e219,f2,positive).
example(e219,f3,positive).
example(e219,f4,negative).
example(e219,f5,negative).
example(e219,f6,negative).
example(e219,f7,negative).
example(e219,f8,negative).
example(e219,f9,negative).
example(e219,f10,positive).
example(e219,f11,positive).
example(e219,f12,negative).
example(e219,f13,positive).
example(e219,f14,negative).
example(e219,f15,negative).
example(e219,f16,positive).
example(e219,f17,negative).
example(e219,f18,positive).
example(e220,f1,negative).
example(e220,f2,positive).
example(e220,f3,positive).
example(e220,f4,negative).
example(e220,f5,negative).
example(e220,f6,negative).
example(e220,f7,negative).
example(e220,f8,negative).
example(e220,f9,negative).
example(e220,f10,positive).
example(e220,f11,positive).
example(e220,f12,negative).
example(e220,f13,negative).
example(e220,f14,negative).
example(e220,f15,negative).
example(e220,f16,negative).
example(e220,f17,negative).
example(e220,f18,positive).
example(e221,f1,negative).
example(e221,f2,positive).
example(e221,f3,positive).
example(e221,f4,negative).
example(e221,f5,negative).
example(e221,f6,negative).
example(e221,f7,negative).
example(e221,f8,negative).
example(e221,f9,negative).
example(e221,f10,positive).
example(e221,f11,negative).
example(e221,f12,negative).
example(e221,f13,positive).
example(e221,f14,negative).
example(e221,f15,negative).
example(e221,f16,negative).
example(e221,f17,negative).
example(e221,f18,positive).
example(e222,f1,negative).
example(e222,f2,positive).
example(e222,f3,positive).
example(e222,f4,negative).
example(e222,f5,negative).
example(e222,f6,negative).
example(e222,f7,negative).
example(e222,f8,negative).
example(e222,f9,negative).
example(e222,f10,positive).
example(e222,f11,negative).
example(e222,f12,negative).
example(e222,f13,negative).
example(e222,f14,negative).
example(e222,f15,positive).
example(e222,f16,negative).
example(e222,f17,negative).
example(e222,f18,positive).
example(e223,f1,negative).
example(e223,f2,positive).
example(e223,f3,positive).
example(e223,f4,negative).
example(e223,f5,negative).
example(e223,f6,negative).
example(e223,f7,negative).
example(e223,f8,negative).
example(e223,f9,positive).
example(e223,f10,negative).
example(e223,f11,positive).
example(e223,f12,negative).
example(e223,f13,negative).
example(e223,f14,positive).
example(e223,f15,negative).
example(e223,f16,positive).
example(e223,f17,negative).
example(e223,f18,positive).
example(e224,f1,negative).
example(e224,f2,positive).
example(e224,f3,negative).
example(e224,f4,negative).
example(e224,f5,negative).
example(e224,f6,positive).
example(e224,f7,negative).
example(e224,f8,positive).
example(e224,f9,positive).
example(e224,f10,negative).
example(e224,f11,positive).
example(e224,f12,negative).
example(e224,f13,negative).
example(e224,f14,positive).
example(e224,f15,positive).
example(e224,f16,negative).
example(e224,f17,negative).
example(e224,f18,negative).
example(e225,f1,negative).
example(e225,f2,positive).
example(e225,f3,negative).
example(e225,f4,negative).
example(e225,f5,negative).
example(e225,f6,positive).
example(e225,f7,negative).
example(e225,f8,positive).
example(e225,f9,positive).
example(e225,f10,negative).
example(e225,f11,positive).
example(e225,f12,negative).
example(e225,f13,negative).
example(e225,f14,positive).
example(e225,f15,negative).
example(e225,f16,negative).
example(e225,f17,positive).
example(e225,f18,negative).
example(e226,f1,negative).
example(e226,f2,positive).
example(e226,f3,negative).
example(e226,f4,negative).
example(e226,f5,negative).
example(e226,f6,positive).
example(e226,f7,negative).
example(e226,f8,positive).
example(e226,f9,positive).
example(e226,f10,negative).
example(e226,f11,negative).
example(e226,f12,negative).
example(e226,f13,negative).
example(e226,f14,positive).
example(e226,f15,positive).
example(e226,f16,negative).
example(e226,f17,positive).
example(e226,f18,negative).
example(e227,f1,negative).
example(e227,f2,positive).
example(e227,f3,negative).
example(e227,f4,negative).
example(e227,f5,negative).
example(e227,f6,positive).
example(e227,f7,negative).
example(e227,f8,positive).
example(e227,f9,negative).
example(e227,f10,negative).
example(e227,f11,positive).
example(e227,f12,negative).
example(e227,f13,negative).
example(e227,f14,positive).
example(e227,f15,positive).
example(e227,f16,negative).
example(e227,f17,positive).
example(e227,f18,negative).
example(e228,f1,negative).
example(e228,f2,positive).
example(e228,f3,negative).
example(e228,f4,negative).
example(e228,f5,negative).
example(e228,f6,positive).
example(e228,f7,positive).
example(e228,f8,negative).
example(e228,f9,negative).
example(e228,f10,positive).
example(e228,f11,positive).
example(e228,f12,negative).
example(e228,f13,negative).
example(e228,f14,positive).
example(e228,f15,positive).
example(e228,f16,negative).
example(e228,f17,negative).
example(e228,f18,negative).
example(e229,f1,negative).
example(e229,f2,positive).
example(e229,f3,negative).
example(e229,f4,negative).
example(e229,f5,negative).
example(e229,f6,positive).
example(e229,f7,positive).
example(e229,f8,negative).
example(e229,f9,negative).
example(e229,f10,positive).
example(e229,f11,positive).
example(e229,f12,negative).
example(e229,f13,negative).
example(e229,f14,positive).
example(e229,f15,negative).
example(e229,f16,negative).
example(e229,f17,positive).
example(e229,f18,negative).
example(e230,f1,negative).
example(e230,f2,positive).
example(e230,f3,negative).
example(e230,f4,negative).
example(e230,f5,negative).
example(e230,f6,positive).
example(e230,f7,positive).
example(e230,f8,negative).
example(e230,f9,negative).
example(e230,f10,positive).
example(e230,f11,positive).
example(e230,f12,negative).
example(e230,f13,positive).
example(e230,f14,negative).
example(e230,f15,negative).
example(e230,f16,negative).
example(e230,f17,negative).
example(e230,f18,positive).
example(e231,f1,negative).
example(e231,f2,positive).
example(e231,f3,negative).
example(e231,f4,negative).
example(e231,f5,negative).
example(e231,f6,positive).
example(e231,f7,positive).
example(e231,f8,negative).
example(e231,f9,negative).
example(e231,f10,positive).
example(e231,f11,positive).
example(e231,f12,negative).
example(e231,f13,negative).
example(e231,f14,negative).
example(e231,f15,positive).
example(e231,f16,negative).
example(e231,f17,negative).
example(e231,f18,positive).
example(e232,f1,negative).
example(e232,f2,positive).
example(e232,f3,negative).
example(e232,f4,negative).
example(e232,f5,negative).
example(e232,f6,positive).
example(e232,f7,positive).
example(e232,f8,negative).
example(e232,f9,negative).
example(e232,f10,positive).
example(e232,f11,negative).
example(e232,f12,negative).
example(e232,f13,negative).
example(e232,f14,positive).
example(e232,f15,positive).
example(e232,f16,negative).
example(e232,f17,positive).
example(e232,f18,negative).
example(e233,f1,negative).
example(e233,f2,positive).
example(e233,f3,negative).
example(e233,f4,negative).
example(e233,f5,negative).
example(e233,f6,positive).
example(e233,f7,positive).
example(e233,f8,negative).
example(e233,f9,negative).
example(e233,f10,positive).
example(e233,f11,negative).
example(e233,f12,negative).
example(e233,f13,positive).
example(e233,f14,negative).
example(e233,f15,positive).
example(e233,f16,negative).
example(e233,f17,negative).
example(e233,f18,positive).
example(e234,f1,negative).
example(e234,f2,positive).
example(e234,f3,negative).
example(e234,f4,negative).
example(e234,f5,negative).
example(e234,f6,positive).
example(e234,f7,positive).
example(e234,f8,negative).
example(e234,f9,positive).
example(e234,f10,negative).
example(e234,f11,negative).
example(e234,f12,positive).
example(e234,f13,positive).
example(e234,f14,negative).
example(e234,f15,negative).
example(e234,f16,negative).
example(e234,f17,negative).
example(e234,f18,positive).
example(e235,f1,negative).
example(e235,f2,positive).
example(e235,f3,negative).
example(e235,f4,negative).
example(e235,f5,negative).
example(e235,f6,positive).
example(e235,f7,positive).
example(e235,f8,negative).
example(e235,f9,positive).
example(e235,f10,negative).
example(e235,f11,negative).
example(e235,f12,positive).
example(e235,f13,negative).
example(e235,f14,negative).
example(e235,f15,positive).
example(e235,f16,negative).
example(e235,f17,negative).
example(e235,f18,positive).
example(e236,f1,negative).
example(e236,f2,positive).
example(e236,f3,negative).
example(e236,f4,negative).
example(e236,f5,negative).
example(e236,f6,positive).
example(e236,f7,positive).
example(e236,f8,negative).
example(e236,f9,negative).
example(e236,f10,negative).
example(e236,f11,negative).
example(e236,f12,positive).
example(e236,f13,positive).
example(e236,f14,negative).
example(e236,f15,positive).
example(e236,f16,negative).
example(e236,f17,negative).
example(e236,f18,positive).
example(e237,f1,negative).
example(e237,f2,positive).
example(e237,f3,negative).
example(e237,f4,negative).
example(e237,f5,negative).
example(e237,f6,positive).
example(e237,f7,negative).
example(e237,f8,negative).
example(e237,f9,negative).
example(e237,f10,positive).
example(e237,f11,positive).
example(e237,f12,negative).
example(e237,f13,negative).
example(e237,f14,positive).
example(e237,f15,positive).
example(e237,f16,negative).
example(e237,f17,positive).
example(e237,f18,negative).
example(e238,f1,negative).
example(e238,f2,positive).
example(e238,f3,negative).
example(e238,f4,negative).
example(e238,f5,negative).
example(e238,f6,positive).
example(e238,f7,negative).
example(e238,f8,negative).
example(e238,f9,negative).
example(e238,f10,positive).
example(e238,f11,positive).
example(e238,f12,negative).
example(e238,f13,positive).
example(e238,f14,negative).
example(e238,f15,positive).
example(e238,f16,negative).
example(e238,f17,negative).
example(e238,f18,positive).
example(e239,f1,negative).
example(e239,f2,positive).
example(e239,f3,negative).
example(e239,f4,negative).
example(e239,f5,negative).
example(e239,f6,positive).
example(e239,f7,negative).
example(e239,f8,negative).
example(e239,f9,positive).
example(e239,f10,negative).
example(e239,f11,negative).
example(e239,f12,positive).
example(e239,f13,positive).
example(e239,f14,negative).
example(e239,f15,positive).
example(e239,f16,negative).
example(e239,f17,negative).
example(e239,f18,positive).
example(e240,f1,negative).
example(e240,f2,positive).
example(e240,f3,negative).
example(e240,f4,negative).
example(e240,f5,positive).
example(e240,f6,negative).
example(e240,f7,negative).
example(e240,f8,positive).
example(e240,f9,negative).
example(e240,f10,positive).
example(e240,f11,negative).
example(e240,f12,positive).
example(e240,f13,positive).
example(e240,f14,negative).
example(e240,f15,positive).
example(e240,f16,negative).
example(e240,f17,negative).
example(e240,f18,negative).
example(e241,f1,negative).
example(e241,f2,positive).
example(e241,f3,negative).
example(e241,f4,negative).
example(e241,f5,positive).
example(e241,f6,negative).
example(e241,f7,negative).
example(e241,f8,positive).
example(e241,f9,negative).
example(e241,f10,positive).
example(e241,f11,negative).
example(e241,f12,positive).
example(e241,f13,positive).
example(e241,f14,negative).
example(e241,f15,negative).
example(e241,f16,negative).
example(e241,f17,positive).
example(e241,f18,negative).
example(e242,f1,negative).
example(e242,f2,positive).
example(e242,f3,negative).
example(e242,f4,negative).
example(e242,f5,positive).
example(e242,f6,negative).
example(e242,f7,negative).
example(e242,f8,positive).
example(e242,f9,negative).
example(e242,f10,positive).
example(e242,f11,negative).
example(e242,f12,positive).
example(e242,f13,negative).
example(e242,f14,negative).
example(e242,f15,positive).
example(e242,f16,negative).
example(e242,f17,positive).
example(e242,f18,negative).
example(e243,f1,negative).
example(e243,f2,positive).
example(e243,f3,negative).
example(e243,f4,negative).
example(e243,f5,positive).
example(e243,f6,negative).
example(e243,f7,negative).
example(e243,f8,positive).
example(e243,f9,negative).
example(e243,f10,positive).
example(e243,f11,positive).
example(e243,f12,negative).
example(e243,f13,negative).
example(e243,f14,positive).
example(e243,f15,positive).
example(e243,f16,negative).
example(e243,f17,negative).
example(e243,f18,negative).
example(e244,f1,negative).
example(e244,f2,positive).
example(e244,f3,negative).
example(e244,f4,negative).
example(e244,f5,positive).
example(e244,f6,negative).
example(e244,f7,negative).
example(e244,f8,positive).
example(e244,f9,negative).
example(e244,f10,positive).
example(e244,f11,positive).
example(e244,f12,negative).
example(e244,f13,positive).
example(e244,f14,negative).
example(e244,f15,negative).
example(e244,f16,negative).
example(e244,f17,negative).
example(e244,f18,positive).
example(e245,f1,negative).
example(e245,f2,positive).
example(e245,f3,negative).
example(e245,f4,negative).
example(e245,f5,positive).
example(e245,f6,negative).
example(e245,f7,negative).
example(e245,f8,positive).
example(e245,f9,negative).
example(e245,f10,positive).
example(e245,f11,positive).
example(e245,f12,negative).
example(e245,f13,negative).
example(e245,f14,negative).
example(e245,f15,positive).
example(e245,f16,negative).
example(e245,f17,negative).
example(e245,f18,positive).
example(e246,f1,negative).
example(e246,f2,positive).
example(e246,f3,negative).
example(e246,f4,negative).
example(e246,f5,positive).
example(e246,f6,negative).
example(e246,f7,negative).
example(e246,f8,positive).
example(e246,f9,negative).
example(e246,f10,positive).
example(e246,f11,negative).
example(e246,f12,negative).
example(e246,f13,negative).
example(e246,f14,positive).
example(e246,f15,positive).
example(e246,f16,negative).
example(e246,f17,positive).
example(e246,f18,negative).
example(e247,f1,negative).
example(e247,f2,positive).
example(e247,f3,negative).
example(e247,f4,negative).
example(e247,f5,positive).
example(e247,f6,negative).
example(e247,f7,negative).
example(e247,f8,positive).
example(e247,f9,negative).
example(e247,f10,positive).
example(e247,f11,negative).
example(e247,f12,negative).
example(e247,f13,positive).
example(e247,f14,negative).
example(e247,f15,positive).
example(e247,f16,negative).
example(e247,f17,negative).
example(e247,f18,positive).
example(e248,f1,negative).
example(e248,f2,positive).
example(e248,f3,negative).
example(e248,f4,negative).
example(e248,f5,positive).
example(e248,f6,negative).
example(e248,f7,negative).
example(e248,f8,positive).
example(e248,f9,positive).
example(e248,f10,negative).
example(e248,f11,negative).
example(e248,f12,positive).
example(e248,f13,negative).
example(e248,f14,positive).
example(e248,f15,positive).
example(e248,f16,negative).
example(e248,f17,negative).
example(e248,f18,negative).
example(e249,f1,negative).
example(e249,f2,positive).
example(e249,f3,negative).
example(e249,f4,negative).
example(e249,f5,positive).
example(e249,f6,negative).
example(e249,f7,negative).
example(e249,f8,positive).
example(e249,f9,positive).
example(e249,f10,negative).
example(e249,f11,negative).
example(e249,f12,positive).
example(e249,f13,negative).
example(e249,f14,positive).
example(e249,f15,negative).
example(e249,f16,negative).
example(e249,f17,positive).
example(e249,f18,negative).
example(e250,f1,negative).
example(e250,f2,positive).
example(e250,f3,negative).
example(e250,f4,negative).
example(e250,f5,positive).
example(e250,f6,negative).
example(e250,f7,negative).
example(e250,f8,positive).
example(e250,f9,positive).
example(e250,f10,negative).
example(e250,f11,positive).
example(e250,f12,negative).
example(e250,f13,negative).
example(e250,f14,positive).
example(e250,f15,negative).
example(e250,f16,positive).
example(e250,f17,negative).
example(e250,f18,negative).
example(e251,f1,negative).
example(e251,f2,positive).
example(e251,f3,negative).
example(e251,f4,negative).
example(e251,f5,positive).
example(e251,f6,negative).
example(e251,f7,negative).
example(e251,f8,positive).
example(e251,f9,positive).
example(e251,f10,negative).
example(e251,f11,positive).
example(e251,f12,negative).
example(e251,f13,negative).
example(e251,f14,positive).
example(e251,f15,negative).
example(e251,f16,negative).
example(e251,f17,negative).
example(e251,f18,positive).
example(e252,f1,negative).
example(e252,f2,positive).
example(e252,f3,negative).
example(e252,f4,negative).
example(e252,f5,positive).
example(e252,f6,negative).
example(e252,f7,negative).
example(e252,f8,positive).
example(e252,f9,positive).
example(e252,f10,negative).
example(e252,f11,negative).
example(e252,f12,negative).
example(e252,f13,negative).
example(e252,f14,positive).
example(e252,f15,negative).
example(e252,f16,positive).
example(e252,f17,positive).
example(e252,f18,negative).
example(e253,f1,negative).
example(e253,f2,positive).
example(e253,f3,negative).
example(e253,f4,negative).
example(e253,f5,positive).
example(e253,f6,negative).
example(e253,f7,negative).
example(e253,f8,positive).
example(e253,f9,positive).
example(e253,f10,negative).
example(e253,f11,negative).
example(e253,f12,negative).
example(e253,f13,negative).
example(e253,f14,positive).
example(e253,f15,positive).
example(e253,f16,negative).
example(e253,f17,negative).
example(e253,f18,positive).
example(e254,f1,negative).
example(e254,f2,positive).
example(e254,f3,negative).
example(e254,f4,negative).
example(e254,f5,positive).
example(e254,f6,negative).
example(e254,f7,negative).
example(e254,f8,positive).
example(e254,f9,positive).
example(e254,f10,negative).
example(e254,f11,negative).
example(e254,f12,negative).
example(e254,f13,negative).
example(e254,f14,positive).
example(e254,f15,negative).
example(e254,f16,negative).
example(e254,f17,negative).
example(e254,f18,negative).
example(e255,f1,negative).
example(e255,f2,positive).
example(e255,f3,negative).
example(e255,f4,negative).
example(e255,f5,positive).
example(e255,f6,negative).
example(e255,f7,negative).
example(e255,f8,positive).
example(e255,f9,negative).
example(e255,f10,negative).
example(e255,f11,negative).
example(e255,f12,positive).
example(e255,f13,negative).
example(e255,f14,positive).
example(e255,f15,positive).
example(e255,f16,negative).
example(e255,f17,positive).
example(e255,f18,negative).
example(e256,f1,negative).
example(e256,f2,positive).
example(e256,f3,negative).
example(e256,f4,negative).
example(e256,f5,positive).
example(e256,f6,negative).
example(e256,f7,negative).
example(e256,f8,positive).
example(e256,f9,negative).
example(e256,f10,negative).
example(e256,f11,positive).
example(e256,f12,negative).
example(e256,f13,negative).
example(e256,f14,positive).
example(e256,f15,positive).
example(e256,f16,negative).
example(e256,f17,negative).
example(e256,f18,positive).
example(e257,f1,negative).
example(e257,f2,positive).
example(e257,f3,negative).
example(e257,f4,negative).
example(e257,f5,positive).
example(e257,f6,negative).
example(e257,f7,negative).
example(e257,f8,positive).
example(e257,f9,negative).
example(e257,f10,negative).
example(e257,f11,positive).
example(e257,f12,negative).
example(e257,f13,negative).
example(e257,f14,positive).
example(e257,f15,negative).
example(e257,f16,negative).
example(e257,f17,negative).
example(e257,f18,negative).
example(e258,f1,negative).
example(e258,f2,positive).
example(e258,f3,negative).
example(e258,f4,negative).
example(e258,f5,positive).
example(e258,f6,negative).
example(e258,f7,negative).
example(e258,f8,positive).
example(e258,f9,negative).
example(e258,f10,negative).
example(e258,f11,negative).
example(e258,f12,negative).
example(e258,f13,negative).
example(e258,f14,positive).
example(e258,f15,positive).
example(e258,f16,negative).
example(e258,f17,negative).
example(e258,f18,negative).
example(e259,f1,negative).
example(e259,f2,positive).
example(e259,f3,negative).
example(e259,f4,negative).
example(e259,f5,positive).
example(e259,f6,negative).
example(e259,f7,negative).
example(e259,f8,positive).
example(e259,f9,negative).
example(e259,f10,negative).
example(e259,f11,negative).
example(e259,f12,negative).
example(e259,f13,negative).
example(e259,f14,positive).
example(e259,f15,negative).
example(e259,f16,negative).
example(e259,f17,positive).
example(e259,f18,negative).
example(e260,f1,negative).
example(e260,f2,positive).
example(e260,f3,negative).
example(e260,f4,negative).
example(e260,f5,positive).
example(e260,f6,negative).
example(e260,f7,positive).
example(e260,f8,negative).
example(e260,f9,negative).
example(e260,f10,positive).
example(e260,f11,negative).
example(e260,f12,positive).
example(e260,f13,positive).
example(e260,f14,negative).
example(e260,f15,negative).
example(e260,f16,negative).
example(e260,f17,negative).
example(e260,f18,positive).
example(e261,f1,negative).
example(e261,f2,positive).
example(e261,f3,negative).
example(e261,f4,negative).
example(e261,f5,positive).
example(e261,f6,negative).
example(e261,f7,positive).
example(e261,f8,negative).
example(e261,f9,negative).
example(e261,f10,positive).
example(e261,f11,negative).
example(e261,f12,positive).
example(e261,f13,negative).
example(e261,f14,negative).
example(e261,f15,positive).
example(e261,f16,negative).
example(e261,f17,negative).
example(e261,f18,positive).
example(e262,f1,negative).
example(e262,f2,positive).
example(e262,f3,negative).
example(e262,f4,negative).
example(e262,f5,positive).
example(e262,f6,negative).
example(e262,f7,positive).
example(e262,f8,negative).
example(e262,f9,negative).
example(e262,f10,positive).
example(e262,f11,positive).
example(e262,f12,negative).
example(e262,f13,negative).
example(e262,f14,positive).
example(e262,f15,negative).
example(e262,f16,negative).
example(e262,f17,negative).
example(e262,f18,positive).
example(e263,f1,negative).
example(e263,f2,positive).
example(e263,f3,negative).
example(e263,f4,negative).
example(e263,f5,positive).
example(e263,f6,negative).
example(e263,f7,positive).
example(e263,f8,negative).
example(e263,f9,negative).
example(e263,f10,positive).
example(e263,f11,positive).
example(e263,f12,negative).
example(e263,f13,negative).
example(e263,f14,negative).
example(e263,f15,negative).
example(e263,f16,positive).
example(e263,f17,negative).
example(e263,f18,positive).
example(e264,f1,negative).
example(e264,f2,positive).
example(e264,f3,negative).
example(e264,f4,negative).
example(e264,f5,positive).
example(e264,f6,negative).
example(e264,f7,positive).
example(e264,f8,negative).
example(e264,f9,negative).
example(e264,f10,positive).
example(e264,f11,negative).
example(e264,f12,negative).
example(e264,f13,negative).
example(e264,f14,positive).
example(e264,f15,positive).
example(e264,f16,negative).
example(e264,f17,negative).
example(e264,f18,positive).
example(e265,f1,negative).
example(e265,f2,positive).
example(e265,f3,negative).
example(e265,f4,negative).
example(e265,f5,positive).
example(e265,f6,negative).
example(e265,f7,positive).
example(e265,f8,negative).
example(e265,f9,negative).
example(e265,f10,positive).
example(e265,f11,negative).
example(e265,f12,negative).
example(e265,f13,positive).
example(e265,f14,negative).
example(e265,f15,negative).
example(e265,f16,positive).
example(e265,f17,negative).
example(e265,f18,positive).
example(e266,f1,negative).
example(e266,f2,positive).
example(e266,f3,negative).
example(e266,f4,negative).
example(e266,f5,positive).
example(e266,f6,negative).
example(e266,f7,positive).
example(e266,f8,negative).
example(e266,f9,negative).
example(e266,f10,positive).
example(e266,f11,negative).
example(e266,f12,negative).
example(e266,f13,negative).
example(e266,f14,negative).
example(e266,f15,negative).
example(e266,f16,negative).
example(e266,f17,negative).
example(e266,f18,positive).
example(e267,f1,negative).
example(e267,f2,positive).
example(e267,f3,negative).
example(e267,f4,negative).
example(e267,f5,positive).
example(e267,f6,negative).
example(e267,f7,positive).
example(e267,f8,negative).
example(e267,f9,positive).
example(e267,f10,negative).
example(e267,f11,negative).
example(e267,f12,negative).
example(e267,f13,negative).
example(e267,f14,positive).
example(e267,f15,negative).
example(e267,f16,positive).
example(e267,f17,negative).
example(e267,f18,positive).
example(e268,f1,negative).
example(e268,f2,positive).
example(e268,f3,negative).
example(e268,f4,negative).
example(e268,f5,positive).
example(e268,f6,negative).
example(e268,f7,positive).
example(e268,f8,negative).
example(e268,f9,negative).
example(e268,f10,negative).
example(e268,f11,positive).
example(e268,f12,negative).
example(e268,f13,negative).
example(e268,f14,positive).
example(e268,f15,negative).
example(e268,f16,positive).
example(e268,f17,negative).
example(e268,f18,positive).
example(e269,f1,negative).
example(e269,f2,positive).
example(e269,f3,negative).
example(e269,f4,negative).
example(e269,f5,positive).
example(e269,f6,negative).
example(e269,f7,negative).
example(e269,f8,negative).
example(e269,f9,negative).
example(e269,f10,positive).
example(e269,f11,negative).
example(e269,f12,positive).
example(e269,f13,positive).
example(e269,f14,negative).
example(e269,f15,positive).
example(e269,f16,negative).
example(e269,f17,negative).
example(e269,f18,positive).
example(e270,f1,negative).
example(e270,f2,positive).
example(e270,f3,negative).
example(e270,f4,negative).
example(e270,f5,positive).
example(e270,f6,negative).
example(e270,f7,negative).
example(e270,f8,negative).
example(e270,f9,negative).
example(e270,f10,positive).
example(e270,f11,positive).
example(e270,f12,negative).
example(e270,f13,negative).
example(e270,f14,positive).
example(e270,f15,positive).
example(e270,f16,negative).
example(e270,f17,negative).
example(e270,f18,positive).
example(e271,f1,negative).
example(e271,f2,positive).
example(e271,f3,negative).
example(e271,f4,negative).
example(e271,f5,positive).
example(e271,f6,negative).
example(e271,f7,negative).
example(e271,f8,negative).
example(e271,f9,negative).
example(e271,f10,positive).
example(e271,f11,positive).
example(e271,f12,negative).
example(e271,f13,positive).
example(e271,f14,negative).
example(e271,f15,negative).
example(e271,f16,positive).
example(e271,f17,negative).
example(e271,f18,positive).
example(e272,f1,negative).
example(e272,f2,positive).
example(e272,f3,negative).
example(e272,f4,negative).
example(e272,f5,positive).
example(e272,f6,negative).
example(e272,f7,negative).
example(e272,f8,negative).
example(e272,f9,negative).
example(e272,f10,positive).
example(e272,f11,positive).
example(e272,f12,negative).
example(e272,f13,negative).
example(e272,f14,negative).
example(e272,f15,negative).
example(e272,f16,negative).
example(e272,f17,negative).
example(e272,f18,positive).
example(e273,f1,negative).
example(e273,f2,positive).
example(e273,f3,negative).
example(e273,f4,negative).
example(e273,f5,positive).
example(e273,f6,negative).
example(e273,f7,negative).
example(e273,f8,negative).
example(e273,f9,negative).
example(e273,f10,positive).
example(e273,f11,negative).
example(e273,f12,negative).
example(e273,f13,positive).
example(e273,f14,negative).
example(e273,f15,negative).
example(e273,f16,negative).
example(e273,f17,negative).
example(e273,f18,positive).
example(e274,f1,negative).
example(e274,f2,positive).
example(e274,f3,negative).
example(e274,f4,negative).
example(e274,f5,positive).
example(e274,f6,negative).
example(e274,f7,negative).
example(e274,f8,negative).
example(e274,f9,negative).
example(e274,f10,positive).
example(e274,f11,negative).
example(e274,f12,negative).
example(e274,f13,negative).
example(e274,f14,negative).
example(e274,f15,positive).
example(e274,f16,negative).
example(e274,f17,negative).
example(e274,f18,positive).
example(e275,f1,negative).
example(e275,f2,positive).
example(e275,f3,negative).
example(e275,f4,negative).
example(e275,f5,positive).
example(e275,f6,negative).
example(e275,f7,negative).
example(e275,f8,negative).
example(e275,f9,positive).
example(e275,f10,negative).
example(e275,f11,positive).
example(e275,f12,negative).
example(e275,f13,negative).
example(e275,f14,positive).
example(e275,f15,negative).
example(e275,f16,positive).
example(e275,f17,negative).
example(e275,f18,positive).
example(e276,f1,negative).
example(e276,f2,positive).
example(e276,f3,negative).
example(e276,f4,negative).
example(e276,f5,negative).
example(e276,f6,negative).
example(e276,f7,negative).
example(e276,f8,positive).
example(e276,f9,negative).
example(e276,f10,positive).
example(e276,f11,positive).
example(e276,f12,negative).
example(e276,f13,negative).
example(e276,f14,positive).
example(e276,f15,positive).
example(e276,f16,negative).
example(e276,f17,positive).
example(e276,f18,negative).
example(e277,f1,negative).
example(e277,f2,positive).
example(e277,f3,negative).
example(e277,f4,negative).
example(e277,f5,negative).
example(e277,f6,negative).
example(e277,f7,negative).
example(e277,f8,positive).
example(e277,f9,negative).
example(e277,f10,positive).
example(e277,f11,positive).
example(e277,f12,negative).
example(e277,f13,positive).
example(e277,f14,negative).
example(e277,f15,positive).
example(e277,f16,negative).
example(e277,f17,negative).
example(e277,f18,positive).
example(e278,f1,negative).
example(e278,f2,positive).
example(e278,f3,negative).
example(e278,f4,negative).
example(e278,f5,negative).
example(e278,f6,negative).
example(e278,f7,negative).
example(e278,f8,positive).
example(e278,f9,positive).
example(e278,f10,negative).
example(e278,f11,negative).
example(e278,f12,positive).
example(e278,f13,negative).
example(e278,f14,positive).
example(e278,f15,positive).
example(e278,f16,negative).
example(e278,f17,positive).
example(e278,f18,negative).
example(e279,f1,negative).
example(e279,f2,positive).
example(e279,f3,negative).
example(e279,f4,negative).
example(e279,f5,negative).
example(e279,f6,negative).
example(e279,f7,negative).
example(e279,f8,positive).
example(e279,f9,positive).
example(e279,f10,negative).
example(e279,f11,positive).
example(e279,f12,negative).
example(e279,f13,negative).
example(e279,f14,positive).
example(e279,f15,negative).
example(e279,f16,positive).
example(e279,f17,positive).
example(e279,f18,negative).
example(e280,f1,negative).
example(e280,f2,positive).
example(e280,f3,negative).
example(e280,f4,negative).
example(e280,f5,negative).
example(e280,f6,negative).
example(e280,f7,negative).
example(e280,f8,positive).
example(e280,f9,positive).
example(e280,f10,negative).
example(e280,f11,positive).
example(e280,f12,negative).
example(e280,f13,negative).
example(e280,f14,positive).
example(e280,f15,positive).
example(e280,f16,negative).
example(e280,f17,negative).
example(e280,f18,positive).
example(e281,f1,negative).
example(e281,f2,positive).
example(e281,f3,negative).
example(e281,f4,negative).
example(e281,f5,negative).
example(e281,f6,negative).
example(e281,f7,negative).
example(e281,f8,positive).
example(e281,f9,positive).
example(e281,f10,negative).
example(e281,f11,positive).
example(e281,f12,negative).
example(e281,f13,negative).
example(e281,f14,positive).
example(e281,f15,negative).
example(e281,f16,negative).
example(e281,f17,negative).
example(e281,f18,negative).
example(e282,f1,negative).
example(e282,f2,positive).
example(e282,f3,negative).
example(e282,f4,negative).
example(e282,f5,negative).
example(e282,f6,negative).
example(e282,f7,negative).
example(e282,f8,positive).
example(e282,f9,positive).
example(e282,f10,negative).
example(e282,f11,negative).
example(e282,f12,negative).
example(e282,f13,negative).
example(e282,f14,positive).
example(e282,f15,positive).
example(e282,f16,negative).
example(e282,f17,negative).
example(e282,f18,negative).
example(e283,f1,negative).
example(e283,f2,positive).
example(e283,f3,negative).
example(e283,f4,negative).
example(e283,f5,negative).
example(e283,f6,negative).
example(e283,f7,negative).
example(e283,f8,positive).
example(e283,f9,positive).
example(e283,f10,negative).
example(e283,f11,negative).
example(e283,f12,negative).
example(e283,f13,negative).
example(e283,f14,positive).
example(e283,f15,negative).
example(e283,f16,negative).
example(e283,f17,positive).
example(e283,f18,negative).
example(e284,f1,negative).
example(e284,f2,positive).
example(e284,f3,negative).
example(e284,f4,negative).
example(e284,f5,negative).
example(e284,f6,negative).
example(e284,f7,negative).
example(e284,f8,positive).
example(e284,f9,negative).
example(e284,f10,negative).
example(e284,f11,positive).
example(e284,f12,negative).
example(e284,f13,negative).
example(e284,f14,positive).
example(e284,f15,positive).
example(e284,f16,negative).
example(e284,f17,negative).
example(e284,f18,negative).
example(e285,f1,negative).
example(e285,f2,positive).
example(e285,f3,negative).
example(e285,f4,negative).
example(e285,f5,negative).
example(e285,f6,negative).
example(e285,f7,negative).
example(e285,f8,positive).
example(e285,f9,negative).
example(e285,f10,negative).
example(e285,f11,positive).
example(e285,f12,negative).
example(e285,f13,negative).
example(e285,f14,positive).
example(e285,f15,negative).
example(e285,f16,negative).
example(e285,f17,positive).
example(e285,f18,negative).
example(e286,f1,negative).
example(e286,f2,positive).
example(e286,f3,negative).
example(e286,f4,negative).
example(e286,f5,negative).
example(e286,f6,negative).
example(e286,f7,negative).
example(e286,f8,positive).
example(e286,f9,negative).
example(e286,f10,negative).
example(e286,f11,negative).
example(e286,f12,negative).
example(e286,f13,negative).
example(e286,f14,positive).
example(e286,f15,positive).
example(e286,f16,negative).
example(e286,f17,positive).
example(e286,f18,negative).
example(e287,f1,negative).
example(e287,f2,positive).
example(e287,f3,negative).
example(e287,f4,negative).
example(e287,f5,negative).
example(e287,f6,negative).
example(e287,f7,positive).
example(e287,f8,negative).
example(e287,f9,negative).
example(e287,f10,positive).
example(e287,f11,negative).
example(e287,f12,positive).
example(e287,f13,positive).
example(e287,f14,negative).
example(e287,f15,positive).
example(e287,f16,negative).
example(e287,f17,negative).
example(e287,f18,positive).
example(e288,f1,negative).
example(e288,f2,positive).
example(e288,f3,negative).
example(e288,f4,negative).
example(e288,f5,negative).
example(e288,f6,negative).
example(e288,f7,positive).
example(e288,f8,negative).
example(e288,f9,negative).
example(e288,f10,positive).
example(e288,f11,positive).
example(e288,f12,negative).
example(e288,f13,negative).
example(e288,f14,positive).
example(e288,f15,positive).
example(e288,f16,negative).
example(e288,f17,negative).
example(e288,f18,positive).
example(e289,f1,negative).
example(e289,f2,positive).
example(e289,f3,negative).
example(e289,f4,negative).
example(e289,f5,negative).
example(e289,f6,negative).
example(e289,f7,positive).
example(e289,f8,negative).
example(e289,f9,negative).
example(e289,f10,positive).
example(e289,f11,positive).
example(e289,f12,negative).
example(e289,f13,positive).
example(e289,f14,negative).
example(e289,f15,negative).
example(e289,f16,positive).
example(e289,f17,negative).
example(e289,f18,positive).
example(e290,f1,negative).
example(e290,f2,positive).
example(e290,f3,negative).
example(e290,f4,negative).
example(e290,f5,negative).
example(e290,f6,negative).
example(e290,f7,positive).
example(e290,f8,negative).
example(e290,f9,negative).
example(e290,f10,positive).
example(e290,f11,positive).
example(e290,f12,negative).
example(e290,f13,negative).
example(e290,f14,negative).
example(e290,f15,negative).
example(e290,f16,negative).
example(e290,f17,negative).
example(e290,f18,positive).
example(e291,f1,negative).
example(e291,f2,positive).
example(e291,f3,negative).
example(e291,f4,negative).
example(e291,f5,negative).
example(e291,f6,negative).
example(e291,f7,positive).
example(e291,f8,negative).
example(e291,f9,negative).
example(e291,f10,positive).
example(e291,f11,negative).
example(e291,f12,negative).
example(e291,f13,positive).
example(e291,f14,negative).
example(e291,f15,negative).
example(e291,f16,negative).
example(e291,f17,negative).
example(e291,f18,positive).
example(e292,f1,negative).
example(e292,f2,positive).
example(e292,f3,negative).
example(e292,f4,negative).
example(e292,f5,negative).
example(e292,f6,negative).
example(e292,f7,positive).
example(e292,f8,negative).
example(e292,f9,negative).
example(e292,f10,positive).
example(e292,f11,negative).
example(e292,f12,negative).
example(e292,f13,negative).
example(e292,f14,negative).
example(e292,f15,positive).
example(e292,f16,negative).
example(e292,f17,negative).
example(e292,f18,positive).
example(e293,f1,negative).
example(e293,f2,positive).
example(e293,f3,negative).
example(e293,f4,negative).
example(e293,f5,negative).
example(e293,f6,negative).
example(e293,f7,negative).
example(e293,f8,negative).
example(e293,f9,negative).
example(e293,f10,positive).
example(e293,f11,positive).
example(e293,f12,negative).
example(e293,f13,positive).
example(e293,f14,negative).
example(e293,f15,negative).
example(e293,f16,negative).
example(e293,f17,negative).
example(e293,f18,positive).
example(e294,f1,negative).
example(e294,f2,positive).
example(e294,f3,negative).
example(e294,f4,negative).
example(e294,f5,negative).
example(e294,f6,negative).
example(e294,f7,negative).
example(e294,f8,negative).
example(e294,f9,negative).
example(e294,f10,positive).
example(e294,f11,positive).
example(e294,f12,negative).
example(e294,f13,negative).
example(e294,f14,negative).
example(e294,f15,positive).
example(e294,f16,negative).
example(e294,f17,negative).
example(e294,f18,positive).
example(e295,f1,negative).
example(e295,f2,positive).
example(e295,f3,negative).
example(e295,f4,negative).
example(e295,f5,negative).
example(e295,f6,negative).
example(e295,f7,negative).
example(e295,f8,negative).
example(e295,f9,negative).
example(e295,f10,positive).
example(e295,f11,negative).
example(e295,f12,negative).
example(e295,f13,positive).
example(e295,f14,negative).
example(e295,f15,positive).
example(e295,f16,negative).
example(e295,f17,negative).
example(e295,f18,positive).
example(e296,f1,positive).
example(e296,f2,negative).
example(e296,f3,negative).
example(e296,f4,positive).
example(e296,f5,negative).
example(e296,f6,positive).
example(e296,f7,negative).
example(e296,f8,positive).
example(e296,f9,negative).
example(e296,f10,positive).
example(e296,f11,positive).
example(e296,f12,negative).
example(e296,f13,negative).
example(e296,f14,positive).
example(e296,f15,positive).
example(e296,f16,negative).
example(e296,f17,positive).
example(e296,f18,negative).
example(e297,f1,positive).
example(e297,f2,negative).
example(e297,f3,negative).
example(e297,f4,positive).
example(e297,f5,negative).
example(e297,f6,positive).
example(e297,f7,negative).
example(e297,f8,positive).
example(e297,f9,negative).
example(e297,f10,positive).
example(e297,f11,positive).
example(e297,f12,negative).
example(e297,f13,positive).
example(e297,f14,negative).
example(e297,f15,negative).
example(e297,f16,positive).
example(e297,f17,positive).
example(e297,f18,negative).
example(e298,f1,positive).
example(e298,f2,negative).
example(e298,f3,negative).
example(e298,f4,positive).
example(e298,f5,negative).
example(e298,f6,positive).
example(e298,f7,negative).
example(e298,f8,positive).
example(e298,f9,positive).
example(e298,f10,negative).
example(e298,f11,negative).
example(e298,f12,positive).
example(e298,f13,positive).
example(e298,f14,negative).
example(e298,f15,positive).
example(e298,f16,negative).
example(e298,f17,negative).
example(e298,f18,positive).
example(e299,f1,positive).
example(e299,f2,negative).
example(e299,f3,negative).
example(e299,f4,positive).
example(e299,f5,negative).
example(e299,f6,positive).
example(e299,f7,positive).
example(e299,f8,negative).
example(e299,f9,negative).
example(e299,f10,positive).
example(e299,f11,negative).
example(e299,f12,positive).
example(e299,f13,negative).
example(e299,f14,positive).
example(e299,f15,positive).
example(e299,f16,negative).
example(e299,f17,positive).
example(e299,f18,negative).
example(e300,f1,positive).
example(e300,f2,negative).
example(e300,f3,negative).
example(e300,f4,positive).
example(e300,f5,negative).
example(e300,f6,positive).
example(e300,f7,positive).
example(e300,f8,negative).
example(e300,f9,negative).
example(e300,f10,positive).
example(e300,f11,positive).
example(e300,f12,negative).
example(e300,f13,negative).
example(e300,f14,positive).
example(e300,f15,negative).
example(e300,f16,positive).
example(e300,f17,positive).
example(e300,f18,negative).
example(e301,f1,positive).
example(e301,f2,negative).
example(e301,f3,negative).
example(e301,f4,positive).
example(e301,f5,negative).
example(e301,f6,positive).
example(e301,f7,positive).
example(e301,f8,negative).
example(e301,f9,negative).
example(e301,f10,positive).
example(e301,f11,positive).
example(e301,f12,negative).
example(e301,f13,negative).
example(e301,f14,positive).
example(e301,f15,positive).
example(e301,f16,negative).
example(e301,f17,negative).
example(e301,f18,positive).
example(e302,f1,positive).
example(e302,f2,negative).
example(e302,f3,negative).
example(e302,f4,positive).
example(e302,f5,negative).
example(e302,f6,positive).
example(e302,f7,positive).
example(e302,f8,negative).
example(e302,f9,negative).
example(e302,f10,positive).
example(e302,f11,positive).
example(e302,f12,negative).
example(e302,f13,negative).
example(e302,f14,positive).
example(e302,f15,negative).
example(e302,f16,negative).
example(e302,f17,negative).
example(e302,f18,negative).
example(e303,f1,positive).
example(e303,f2,negative).
example(e303,f3,negative).
example(e303,f4,positive).
example(e303,f5,negative).
example(e303,f6,positive).
example(e303,f7,positive).
example(e303,f8,negative).
example(e303,f9,negative).
example(e303,f10,positive).
example(e303,f11,positive).
example(e303,f12,negative).
example(e303,f13,negative).
example(e303,f14,negative).
example(e303,f15,negative).
example(e303,f16,positive).
example(e303,f17,negative).
example(e303,f18,negative).
example(e304,f1,positive).
example(e304,f2,negative).
example(e304,f3,negative).
example(e304,f4,positive).
example(e304,f5,negative).
example(e304,f6,positive).
example(e304,f7,positive).
example(e304,f8,negative).
example(e304,f9,negative).
example(e304,f10,positive).
example(e304,f11,negative).
example(e304,f12,negative).
example(e304,f13,negative).
example(e304,f14,positive).
example(e304,f15,positive).
example(e304,f16,negative).
example(e304,f17,negative).
example(e304,f18,negative).
example(e305,f1,positive).
example(e305,f2,negative).
example(e305,f3,negative).
example(e305,f4,positive).
example(e305,f5,negative).
example(e305,f6,positive).
example(e305,f7,positive).
example(e305,f8,negative).
example(e305,f9,negative).
example(e305,f10,positive).
example(e305,f11,negative).
example(e305,f12,negative).
example(e305,f13,negative).
example(e305,f14,positive).
example(e305,f15,negative).
example(e305,f16,negative).
example(e305,f17,positive).
example(e305,f18,negative).
example(e306,f1,positive).
example(e306,f2,negative).
example(e306,f3,negative).
example(e306,f4,positive).
example(e306,f5,negative).
example(e306,f6,positive).
example(e306,f7,positive).
example(e306,f8,negative).
example(e306,f9,negative).
example(e306,f10,positive).
example(e306,f11,negative).
example(e306,f12,negative).
example(e306,f13,negative).
example(e306,f14,negative).
example(e306,f15,negative).
example(e306,f16,positive).
example(e306,f17,positive).
example(e306,f18,negative).
example(e307,f1,positive).
example(e307,f2,negative).
example(e307,f3,negative).
example(e307,f4,positive).
example(e307,f5,negative).
example(e307,f6,positive).
example(e307,f7,positive).
example(e307,f8,negative).
example(e307,f9,positive).
example(e307,f10,negative).
example(e307,f11,negative).
example(e307,f12,positive).
example(e307,f13,negative).
example(e307,f14,positive).
example(e307,f15,positive).
example(e307,f16,negative).
example(e307,f17,negative).
example(e307,f18,positive).
example(e308,f1,positive).
example(e308,f2,negative).
example(e308,f3,negative).
example(e308,f4,positive).
example(e308,f5,negative).
example(e308,f6,positive).
example(e308,f7,positive).
example(e308,f8,negative).
example(e308,f9,positive).
example(e308,f10,negative).
example(e308,f11,negative).
example(e308,f12,positive).
example(e308,f13,negative).
example(e308,f14,negative).
example(e308,f15,negative).
example(e308,f16,negative).
example(e308,f17,negative).
example(e308,f18,positive).
example(e309,f1,positive).
example(e309,f2,negative).
example(e309,f3,negative).
example(e309,f4,positive).
example(e309,f5,negative).
example(e309,f6,positive).
example(e309,f7,positive).
example(e309,f8,negative).
example(e309,f9,negative).
example(e309,f10,negative).
example(e309,f11,negative).
example(e309,f12,positive).
example(e309,f13,negative).
example(e309,f14,negative).
example(e309,f15,positive).
example(e309,f16,negative).
example(e309,f17,negative).
example(e309,f18,positive).
example(e310,f1,positive).
example(e310,f2,negative).
example(e310,f3,negative).
example(e310,f4,positive).
example(e310,f5,negative).
example(e310,f6,positive).
example(e310,f7,negative).
example(e310,f8,negative).
example(e310,f9,negative).
example(e310,f10,positive).
example(e310,f11,positive).
example(e310,f12,negative).
example(e310,f13,negative).
example(e310,f14,positive).
example(e310,f15,positive).
example(e310,f16,negative).
example(e310,f17,negative).
example(e310,f18,negative).
example(e311,f1,positive).
example(e311,f2,negative).
example(e311,f3,negative).
example(e311,f4,positive).
example(e311,f5,negative).
example(e311,f6,positive).
example(e311,f7,negative).
example(e311,f8,negative).
example(e311,f9,negative).
example(e311,f10,positive).
example(e311,f11,positive).
example(e311,f12,negative).
example(e311,f13,negative).
example(e311,f14,positive).
example(e311,f15,negative).
example(e311,f16,negative).
example(e311,f17,positive).
example(e311,f18,negative).
example(e312,f1,positive).
example(e312,f2,negative).
example(e312,f3,negative).
example(e312,f4,positive).
example(e312,f5,negative).
example(e312,f6,positive).
example(e312,f7,negative).
example(e312,f8,negative).
example(e312,f9,negative).
example(e312,f10,positive).
example(e312,f11,positive).
example(e312,f12,negative).
example(e312,f13,positive).
example(e312,f14,negative).
example(e312,f15,negative).
example(e312,f16,positive).
example(e312,f17,negative).
example(e312,f18,negative).
example(e313,f1,positive).
example(e313,f2,negative).
example(e313,f3,negative).
example(e313,f4,positive).
example(e313,f5,negative).
example(e313,f6,positive).
example(e313,f7,negative).
example(e313,f8,negative).
example(e313,f9,negative).
example(e313,f10,positive).
example(e313,f11,positive).
example(e313,f12,negative).
example(e313,f13,negative).
example(e313,f14,negative).
example(e313,f15,negative).
example(e313,f16,positive).
example(e313,f17,positive).
example(e313,f18,negative).
example(e314,f1,positive).
example(e314,f2,negative).
example(e314,f3,negative).
example(e314,f4,positive).
example(e314,f5,negative).
example(e314,f6,positive).
example(e314,f7,negative).
example(e314,f8,negative).
example(e314,f9,negative).
example(e314,f10,positive).
example(e314,f11,negative).
example(e314,f12,negative).
example(e314,f13,negative).
example(e314,f14,positive).
example(e314,f15,positive).
example(e314,f16,negative).
example(e314,f17,positive).
example(e314,f18,negative).
example(e315,f1,positive).
example(e315,f2,negative).
example(e315,f3,negative).
example(e315,f4,positive).
example(e315,f5,negative).
example(e315,f6,positive).
example(e315,f7,negative).
example(e315,f8,negative).
example(e315,f9,negative).
example(e315,f10,positive).
example(e315,f11,negative).
example(e315,f12,negative).
example(e315,f13,positive).
example(e315,f14,negative).
example(e315,f15,negative).
example(e315,f16,positive).
example(e315,f17,positive).
example(e315,f18,negative).
example(e316,f1,positive).
example(e316,f2,negative).
example(e316,f3,negative).
example(e316,f4,positive).
example(e316,f5,negative).
example(e316,f6,positive).
example(e316,f7,negative).
example(e316,f8,negative).
example(e316,f9,positive).
example(e316,f10,negative).
example(e316,f11,negative).
example(e316,f12,positive).
example(e316,f13,positive).
example(e316,f14,negative).
example(e316,f15,negative).
example(e316,f16,negative).
example(e316,f17,negative).
example(e316,f18,positive).
example(e317,f1,positive).
example(e317,f2,negative).
example(e317,f3,negative).
example(e317,f4,positive).
example(e317,f5,negative).
example(e317,f6,positive).
example(e317,f7,negative).
example(e317,f8,negative).
example(e317,f9,positive).
example(e317,f10,negative).
example(e317,f11,negative).
example(e317,f12,positive).
example(e317,f13,negative).
example(e317,f14,negative).
example(e317,f15,positive).
example(e317,f16,negative).
example(e317,f17,negative).
example(e317,f18,positive).
example(e318,f1,positive).
example(e318,f2,negative).
example(e318,f3,negative).
example(e318,f4,positive).
example(e318,f5,negative).
example(e318,f6,positive).
example(e318,f7,negative).
example(e318,f8,negative).
example(e318,f9,negative).
example(e318,f10,negative).
example(e318,f11,negative).
example(e318,f12,positive).
example(e318,f13,positive).
example(e318,f14,negative).
example(e318,f15,positive).
example(e318,f16,negative).
example(e318,f17,negative).
example(e318,f18,positive).
example(e319,f1,positive).
example(e319,f2,negative).
example(e319,f3,negative).
example(e319,f4,positive).
example(e319,f5,positive).
example(e319,f6,negative).
example(e319,f7,negative).
example(e319,f8,positive).
example(e319,f9,negative).
example(e319,f10,positive).
example(e319,f11,negative).
example(e319,f12,positive).
example(e319,f13,negative).
example(e319,f14,positive).
example(e319,f15,positive).
example(e319,f16,negative).
example(e319,f17,positive).
example(e319,f18,negative).
example(e320,f1,positive).
example(e320,f2,negative).
example(e320,f3,negative).
example(e320,f4,positive).
example(e320,f5,positive).
example(e320,f6,negative).
example(e320,f7,negative).
example(e320,f8,positive).
example(e320,f9,negative).
example(e320,f10,positive).
example(e320,f11,negative).
example(e320,f12,positive).
example(e320,f13,positive).
example(e320,f14,negative).
example(e320,f15,negative).
example(e320,f16,positive).
example(e320,f17,positive).
example(e320,f18,negative).
example(e321,f1,positive).
example(e321,f2,negative).
example(e321,f3,negative).
example(e321,f4,positive).
example(e321,f5,positive).
example(e321,f6,negative).
example(e321,f7,negative).
example(e321,f8,positive).
example(e321,f9,negative).
example(e321,f10,positive).
example(e321,f11,negative).
example(e321,f12,positive).
example(e321,f13,positive).
example(e321,f14,negative).
example(e321,f15,positive).
example(e321,f16,negative).
example(e321,f17,negative).
example(e321,f18,positive).
example(e322,f1,positive).
example(e322,f2,negative).
example(e322,f3,negative).
example(e322,f4,positive).
example(e322,f5,positive).
example(e322,f6,negative).
example(e322,f7,negative).
example(e322,f8,positive).
example(e322,f9,negative).
example(e322,f10,positive).
example(e322,f11,negative).
example(e322,f12,positive).
example(e322,f13,positive).
example(e322,f14,negative).
example(e322,f15,negative).
example(e322,f16,negative).
example(e322,f17,negative).
example(e322,f18,negative).
example(e323,f1,positive).
example(e323,f2,negative).
example(e323,f3,negative).
example(e323,f4,positive).
example(e323,f5,positive).
example(e323,f6,negative).
example(e323,f7,negative).
example(e323,f8,positive).
example(e323,f9,negative).
example(e323,f10,positive).
example(e323,f11,negative).
example(e323,f12,positive).
example(e323,f13,negative).
example(e323,f14,negative).
example(e323,f15,positive).
example(e323,f16,negative).
example(e323,f17,negative).
example(e323,f18,negative).
example(e324,f1,positive).
example(e324,f2,negative).
example(e324,f3,negative).
example(e324,f4,positive).
example(e324,f5,positive).
example(e324,f6,negative).
example(e324,f7,negative).
example(e324,f8,positive).
example(e324,f9,negative).
example(e324,f10,positive).
example(e324,f11,negative).
example(e324,f12,positive).
example(e324,f13,negative).
example(e324,f14,negative).
example(e324,f15,negative).
example(e324,f16,negative).
example(e324,f17,positive).
example(e324,f18,negative).
example(e325,f1,positive).
example(e325,f2,negative).
example(e325,f3,negative).
example(e325,f4,positive).
example(e325,f5,positive).
example(e325,f6,negative).
example(e325,f7,negative).
example(e325,f8,positive).
example(e325,f9,negative).
example(e325,f10,positive).
example(e325,f11,positive).
example(e325,f12,negative).
example(e325,f13,positive).
example(e325,f14,negative).
example(e325,f15,negative).
example(e325,f16,positive).
example(e325,f17,negative).
example(e325,f18,positive).
example(e326,f1,positive).
example(e326,f2,negative).
example(e326,f3,negative).
example(e326,f4,positive).
example(e326,f5,positive).
example(e326,f6,negative).
example(e326,f7,negative).
example(e326,f8,positive).
example(e326,f9,negative).
example(e326,f10,positive).
example(e326,f11,positive).
example(e326,f12,negative).
example(e326,f13,negative).
example(e326,f14,negative).
example(e326,f15,negative).
example(e326,f16,positive).
example(e326,f17,negative).
example(e326,f18,negative).
example(e327,f1,positive).
example(e327,f2,negative).
example(e327,f3,negative).
example(e327,f4,positive).
example(e327,f5,positive).
example(e327,f6,negative).
example(e327,f7,negative).
example(e327,f8,positive).
example(e327,f9,negative).
example(e327,f10,positive).
example(e327,f11,negative).
example(e327,f12,negative).
example(e327,f13,positive).
example(e327,f14,negative).
example(e327,f15,negative).
example(e327,f16,positive).
example(e327,f17,negative).
example(e327,f18,negative).
example(e328,f1,positive).
example(e328,f2,negative).
example(e328,f3,negative).
example(e328,f4,positive).
example(e328,f5,positive).
example(e328,f6,negative).
example(e328,f7,negative).
example(e328,f8,positive).
example(e328,f9,negative).
example(e328,f10,positive).
example(e328,f11,negative).
example(e328,f12,negative).
example(e328,f13,negative).
example(e328,f14,negative).
example(e328,f15,negative).
example(e328,f16,positive).
example(e328,f17,positive).
example(e328,f18,negative).
example(e329,f1,positive).
example(e329,f2,negative).
example(e329,f3,negative).
example(e329,f4,positive).
example(e329,f5,positive).
example(e329,f6,negative).
example(e329,f7,negative).
example(e329,f8,positive).
example(e329,f9,positive).
example(e329,f10,negative).
example(e329,f11,positive).
example(e329,f12,negative).
example(e329,f13,negative).
example(e329,f14,positive).
example(e329,f15,negative).
example(e329,f16,positive).
example(e329,f17,negative).
example(e329,f18,positive).
example(e330,f1,positive).
example(e330,f2,negative).
example(e330,f3,negative).
example(e330,f4,positive).
example(e330,f5,positive).
example(e330,f6,negative).
example(e330,f7,positive).
example(e330,f8,negative).
example(e330,f9,negative).
example(e330,f10,positive).
example(e330,f11,negative).
example(e330,f12,positive).
example(e330,f13,negative).
example(e330,f14,positive).
example(e330,f15,negative).
example(e330,f16,positive).
example(e330,f17,positive).
example(e330,f18,negative).
example(e331,f1,positive).
example(e331,f2,negative).
example(e331,f3,negative).
example(e331,f4,positive).
example(e331,f5,positive).
example(e331,f6,negative).
example(e331,f7,positive).
example(e331,f8,negative).
example(e331,f9,negative).
example(e331,f10,positive).
example(e331,f11,negative).
example(e331,f12,positive).
example(e331,f13,negative).
example(e331,f14,negative).
example(e331,f15,negative).
example(e331,f16,positive).
example(e331,f17,negative).
example(e331,f18,negative).
example(e332,f1,positive).
example(e332,f2,negative).
example(e332,f3,negative).
example(e332,f4,positive).
example(e332,f5,positive).
example(e332,f6,negative).
example(e332,f7,positive).
example(e332,f8,negative).
example(e332,f9,negative).
example(e332,f10,positive).
example(e332,f11,positive).
example(e332,f12,negative).
example(e332,f13,negative).
example(e332,f14,positive).
example(e332,f15,negative).
example(e332,f16,positive).
example(e332,f17,negative).
example(e332,f18,positive).
example(e333,f1,positive).
example(e333,f2,negative).
example(e333,f3,negative).
example(e333,f4,positive).
example(e333,f5,positive).
example(e333,f6,negative).
example(e333,f7,positive).
example(e333,f8,negative).
example(e333,f9,negative).
example(e333,f10,positive).
example(e333,f11,negative).
example(e333,f12,negative).
example(e333,f13,negative).
example(e333,f14,positive).
example(e333,f15,negative).
example(e333,f16,positive).
example(e333,f17,negative).
example(e333,f18,negative).
example(e334,f1,positive).
example(e334,f2,negative).
example(e334,f3,negative).
example(e334,f4,positive).
example(e334,f5,positive).
example(e334,f6,negative).
example(e334,f7,positive).
example(e334,f8,negative).
example(e334,f9,negative).
example(e334,f10,positive).
example(e334,f11,negative).
example(e334,f12,negative).
example(e334,f13,negative).
example(e334,f14,negative).
example(e334,f15,negative).
example(e334,f16,positive).
example(e334,f17,negative).
example(e334,f18,positive).
example(e335,f1,positive).
example(e335,f2,negative).
example(e335,f3,negative).
example(e335,f4,positive).
example(e335,f5,positive).
example(e335,f6,negative).
example(e335,f7,positive).
example(e335,f8,negative).
example(e335,f9,positive).
example(e335,f10,negative).
example(e335,f11,negative).
example(e335,f12,positive).
example(e335,f13,negative).
example(e335,f14,positive).
example(e335,f15,negative).
example(e335,f16,positive).
example(e335,f17,negative).
example(e335,f18,positive).
example(e336,f1,positive).
example(e336,f2,negative).
example(e336,f3,negative).
example(e336,f4,positive).
example(e336,f5,positive).
example(e336,f6,negative).
example(e336,f7,positive).
example(e336,f8,negative).
example(e336,f9,negative).
example(e336,f10,negative).
example(e336,f11,negative).
example(e336,f12,negative).
example(e336,f13,negative).
example(e336,f14,positive).
example(e336,f15,negative).
example(e336,f16,positive).
example(e336,f17,negative).
example(e336,f18,positive).
example(e337,f1,positive).
example(e337,f2,negative).
example(e337,f3,negative).
example(e337,f4,positive).
example(e337,f5,positive).
example(e337,f6,negative).
example(e337,f7,negative).
example(e337,f8,negative).
example(e337,f9,negative).
example(e337,f10,positive).
example(e337,f11,negative).
example(e337,f12,positive).
example(e337,f13,positive).
example(e337,f14,negative).
example(e337,f15,negative).
example(e337,f16,positive).
example(e337,f17,negative).
example(e337,f18,negative).
example(e338,f1,positive).
example(e338,f2,negative).
example(e338,f3,negative).
example(e338,f4,positive).
example(e338,f5,positive).
example(e338,f6,negative).
example(e338,f7,negative).
example(e338,f8,negative).
example(e338,f9,negative).
example(e338,f10,positive).
example(e338,f11,negative).
example(e338,f12,positive).
example(e338,f13,negative).
example(e338,f14,negative).
example(e338,f15,negative).
example(e338,f16,positive).
example(e338,f17,positive).
example(e338,f18,negative).
example(e339,f1,positive).
example(e339,f2,negative).
example(e339,f3,negative).
example(e339,f4,positive).
example(e339,f5,positive).
example(e339,f6,negative).
example(e339,f7,negative).
example(e339,f8,negative).
example(e339,f9,negative).
example(e339,f10,positive).
example(e339,f11,positive).
example(e339,f12,negative).
example(e339,f13,negative).
example(e339,f14,positive).
example(e339,f15,negative).
example(e339,f16,positive).
example(e339,f17,negative).
example(e339,f18,negative).
example(e340,f1,positive).
example(e340,f2,negative).
example(e340,f3,negative).
example(e340,f4,positive).
example(e340,f5,positive).
example(e340,f6,negative).
example(e340,f7,negative).
example(e340,f8,negative).
example(e340,f9,negative).
example(e340,f10,positive).
example(e340,f11,positive).
example(e340,f12,negative).
example(e340,f13,negative).
example(e340,f14,negative).
example(e340,f15,negative).
example(e340,f16,positive).
example(e340,f17,negative).
example(e340,f18,positive).
example(e341,f1,positive).
example(e341,f2,negative).
example(e341,f3,negative).
example(e341,f4,positive).
example(e341,f5,positive).
example(e341,f6,negative).
example(e341,f7,negative).
example(e341,f8,negative).
example(e341,f9,negative).
example(e341,f10,positive).
example(e341,f11,negative).
example(e341,f12,negative).
example(e341,f13,negative).
example(e341,f14,positive).
example(e341,f15,negative).
example(e341,f16,positive).
example(e341,f17,positive).
example(e341,f18,negative).
example(e342,f1,positive).
example(e342,f2,negative).
example(e342,f3,negative).
example(e342,f4,positive).
example(e342,f5,positive).
example(e342,f6,negative).
example(e342,f7,negative).
example(e342,f8,negative).
example(e342,f9,negative).
example(e342,f10,positive).
example(e342,f11,negative).
example(e342,f12,negative).
example(e342,f13,positive).
example(e342,f14,negative).
example(e342,f15,negative).
example(e342,f16,positive).
example(e342,f17,negative).
example(e342,f18,positive).
example(e343,f1,positive).
example(e343,f2,negative).
example(e343,f3,negative).
example(e343,f4,positive).
example(e343,f5,positive).
example(e343,f6,negative).
example(e343,f7,negative).
example(e343,f8,negative).
example(e343,f9,negative).
example(e343,f10,positive).
example(e343,f11,negative).
example(e343,f12,negative).
example(e343,f13,negative).
example(e343,f14,negative).
example(e343,f15,negative).
example(e343,f16,positive).
example(e343,f17,negative).
example(e343,f18,negative).
example(e344,f1,positive).
example(e344,f2,negative).
example(e344,f3,negative).
example(e344,f4,positive).
example(e344,f5,positive).
example(e344,f6,negative).
example(e344,f7,negative).
example(e344,f8,negative).
example(e344,f9,positive).
example(e344,f10,negative).
example(e344,f11,negative).
example(e344,f12,negative).
example(e344,f13,negative).
example(e344,f14,positive).
example(e344,f15,negative).
example(e344,f16,positive).
example(e344,f17,negative).
example(e344,f18,positive).
example(e345,f1,positive).
example(e345,f2,negative).
example(e345,f3,negative).
example(e345,f4,positive).
example(e345,f5,positive).
example(e345,f6,negative).
example(e345,f7,negative).
example(e345,f8,negative).
example(e345,f9,negative).
example(e345,f10,negative).
example(e345,f11,positive).
example(e345,f12,negative).
example(e345,f13,negative).
example(e345,f14,positive).
example(e345,f15,negative).
example(e345,f16,positive).
example(e345,f17,negative).
example(e345,f18,positive).
example(e346,f1,positive).
example(e346,f2,negative).
example(e346,f3,negative).
example(e346,f4,positive).
example(e346,f5,negative).
example(e346,f6,negative).
example(e346,f7,negative).
example(e346,f8,positive).
example(e346,f9,negative).
example(e346,f10,positive).
example(e346,f11,negative).
example(e346,f12,positive).
example(e346,f13,positive).
example(e346,f14,negative).
example(e346,f15,positive).
example(e346,f16,negative).
example(e346,f17,negative).
example(e346,f18,negative).
example(e347,f1,positive).
example(e347,f2,negative).
example(e347,f3,negative).
example(e347,f4,positive).
example(e347,f5,negative).
example(e347,f6,negative).
example(e347,f7,negative).
example(e347,f8,positive).
example(e347,f9,negative).
example(e347,f10,positive).
example(e347,f11,negative).
example(e347,f12,positive).
example(e347,f13,positive).
example(e347,f14,negative).
example(e347,f15,negative).
example(e347,f16,negative).
example(e347,f17,positive).
example(e347,f18,negative).
example(e348,f1,positive).
example(e348,f2,negative).
example(e348,f3,negative).
example(e348,f4,positive).
example(e348,f5,negative).
example(e348,f6,negative).
example(e348,f7,negative).
example(e348,f8,positive).
example(e348,f9,negative).
example(e348,f10,positive).
example(e348,f11,negative).
example(e348,f12,positive).
example(e348,f13,negative).
example(e348,f14,negative).
example(e348,f15,positive).
example(e348,f16,negative).
example(e348,f17,positive).
example(e348,f18,negative).
example(e349,f1,positive).
example(e349,f2,negative).
example(e349,f3,negative).
example(e349,f4,positive).
example(e349,f5,negative).
example(e349,f6,negative).
example(e349,f7,negative).
example(e349,f8,positive).
example(e349,f9,negative).
example(e349,f10,positive).
example(e349,f11,positive).
example(e349,f12,negative).
example(e349,f13,positive).
example(e349,f14,negative).
example(e349,f15,negative).
example(e349,f16,positive).
example(e349,f17,negative).
example(e349,f18,negative).
example(e350,f1,positive).
example(e350,f2,negative).
example(e350,f3,negative).
example(e350,f4,positive).
example(e350,f5,negative).
example(e350,f6,negative).
example(e350,f7,negative).
example(e350,f8,positive).
example(e350,f9,negative).
example(e350,f10,positive).
example(e350,f11,positive).
example(e350,f12,negative).
example(e350,f13,negative).
example(e350,f14,negative).
example(e350,f15,negative).
example(e350,f16,positive).
example(e350,f17,positive).
example(e350,f18,negative).
example(e351,f1,positive).
example(e351,f2,negative).
example(e351,f3,negative).
example(e351,f4,positive).
example(e351,f5,negative).
example(e351,f6,negative).
example(e351,f7,negative).
example(e351,f8,positive).
example(e351,f9,negative).
example(e351,f10,positive).
example(e351,f11,negative).
example(e351,f12,negative).
example(e351,f13,positive).
example(e351,f14,negative).
example(e351,f15,negative).
example(e351,f16,positive).
example(e351,f17,positive).
example(e351,f18,negative).
example(e352,f1,positive).
example(e352,f2,negative).
example(e352,f3,negative).
example(e352,f4,positive).
example(e352,f5,negative).
example(e352,f6,negative).
example(e352,f7,positive).
example(e352,f8,negative).
example(e352,f9,negative).
example(e352,f10,positive).
example(e352,f11,negative).
example(e352,f12,positive).
example(e352,f13,negative).
example(e352,f14,negative).
example(e352,f15,negative).
example(e352,f16,positive).
example(e352,f17,positive).
example(e352,f18,negative).
example(e353,f1,positive).
example(e353,f2,negative).
example(e353,f3,negative).
example(e353,f4,positive).
example(e353,f5,negative).
example(e353,f6,negative).
example(e353,f7,positive).
example(e353,f8,negative).
example(e353,f9,negative).
example(e353,f10,positive).
example(e353,f11,positive).
example(e353,f12,negative).
example(e353,f13,negative).
example(e353,f14,positive).
example(e353,f15,negative).
example(e353,f16,positive).
example(e353,f17,negative).
example(e353,f18,negative).
example(e354,f1,positive).
example(e354,f2,negative).
example(e354,f3,negative).
example(e354,f4,positive).
example(e354,f5,negative).
example(e354,f6,negative).
example(e354,f7,positive).
example(e354,f8,negative).
example(e354,f9,negative).
example(e354,f10,positive).
example(e354,f11,positive).
example(e354,f12,negative).
example(e354,f13,negative).
example(e354,f14,negative).
example(e354,f15,negative).
example(e354,f16,positive).
example(e354,f17,negative).
example(e354,f18,positive).
example(e355,f1,positive).
example(e355,f2,negative).
example(e355,f3,negative).
example(e355,f4,positive).
example(e355,f5,negative).
example(e355,f6,negative).
example(e355,f7,positive).
example(e355,f8,negative).
example(e355,f9,negative).
example(e355,f10,positive).
example(e355,f11,negative).
example(e355,f12,negative).
example(e355,f13,negative).
example(e355,f14,positive).
example(e355,f15,negative).
example(e355,f16,positive).
example(e355,f17,positive).
example(e355,f18,negative).
example(e356,f1,positive).
example(e356,f2,negative).
example(e356,f3,negative).
example(e356,f4,positive).
example(e356,f5,negative).
example(e356,f6,negative).
example(e356,f7,positive).
example(e356,f8,negative).
example(e356,f9,negative).
example(e356,f10,positive).
example(e356,f11,negative).
example(e356,f12,negative).
example(e356,f13,negative).
example(e356,f14,negative).
example(e356,f15,negative).
example(e356,f16,positive).
example(e356,f17,negative).
example(e356,f18,negative).
example(e357,f1,positive).
example(e357,f2,negative).
example(e357,f3,negative).
example(e357,f4,positive).
example(e357,f5,negative).
example(e357,f6,negative).
example(e357,f7,positive).
example(e357,f8,negative).
example(e357,f9,positive).
example(e357,f10,negative).
example(e357,f11,negative).
example(e357,f12,negative).
example(e357,f13,negative).
example(e357,f14,positive).
example(e357,f15,negative).
example(e357,f16,positive).
example(e357,f17,negative).
example(e357,f18,positive).
example(e358,f1,positive).
example(e358,f2,negative).
example(e358,f3,negative).
example(e358,f4,positive).
example(e358,f5,negative).
example(e358,f6,negative).
example(e358,f7,positive).
example(e358,f8,negative).
example(e358,f9,negative).
example(e358,f10,negative).
example(e358,f11,positive).
example(e358,f12,negative).
example(e358,f13,negative).
example(e358,f14,positive).
example(e358,f15,negative).
example(e358,f16,positive).
example(e358,f17,negative).
example(e358,f18,positive).
example(e359,f1,positive).
example(e359,f2,negative).
example(e359,f3,negative).
example(e359,f4,positive).
example(e359,f5,negative).
example(e359,f6,negative).
example(e359,f7,negative).
example(e359,f8,negative).
example(e359,f9,negative).
example(e359,f10,positive).
example(e359,f11,negative).
example(e359,f12,positive).
example(e359,f13,positive).
example(e359,f14,negative).
example(e359,f15,negative).
example(e359,f16,positive).
example(e359,f17,positive).
example(e359,f18,negative).
example(e360,f1,positive).
example(e360,f2,negative).
example(e360,f3,negative).
example(e360,f4,positive).
example(e360,f5,negative).
example(e360,f6,negative).
example(e360,f7,negative).
example(e360,f8,negative).
example(e360,f9,negative).
example(e360,f10,positive).
example(e360,f11,positive).
example(e360,f12,negative).
example(e360,f13,negative).
example(e360,f14,positive).
example(e360,f15,negative).
example(e360,f16,positive).
example(e360,f17,positive).
example(e360,f18,negative).
example(e361,f1,positive).
example(e361,f2,negative).
example(e361,f3,negative).
example(e361,f4,positive).
example(e361,f5,negative).
example(e361,f6,negative).
example(e361,f7,negative).
example(e361,f8,negative).
example(e361,f9,negative).
example(e361,f10,positive).
example(e361,f11,positive).
example(e361,f12,negative).
example(e361,f13,positive).
example(e361,f14,negative).
example(e361,f15,negative).
example(e361,f16,positive).
example(e361,f17,negative).
example(e361,f18,positive).
example(e362,f1,positive).
example(e362,f2,negative).
example(e362,f3,negative).
example(e362,f4,positive).
example(e362,f5,negative).
example(e362,f6,negative).
example(e362,f7,negative).
example(e362,f8,negative).
example(e362,f9,negative).
example(e362,f10,positive).
example(e362,f11,positive).
example(e362,f12,negative).
example(e362,f13,negative).
example(e362,f14,negative).
example(e362,f15,negative).
example(e362,f16,positive).
example(e362,f17,negative).
example(e362,f18,negative).
example(e363,f1,positive).
example(e363,f2,negative).
example(e363,f3,negative).
example(e363,f4,positive).
example(e363,f5,negative).
example(e363,f6,negative).
example(e363,f7,negative).
example(e363,f8,negative).
example(e363,f9,negative).
example(e363,f10,positive).
example(e363,f11,negative).
example(e363,f12,negative).
example(e363,f13,positive).
example(e363,f14,negative).
example(e363,f15,negative).
example(e363,f16,positive).
example(e363,f17,negative).
example(e363,f18,negative).
example(e364,f1,positive).
example(e364,f2,negative).
example(e364,f3,negative).
example(e364,f4,positive).
example(e364,f5,negative).
example(e364,f6,negative).
example(e364,f7,negative).
example(e364,f8,negative).
example(e364,f9,negative).
example(e364,f10,positive).
example(e364,f11,negative).
example(e364,f12,negative).
example(e364,f13,negative).
example(e364,f14,negative).
example(e364,f15,negative).
example(e364,f16,positive).
example(e364,f17,positive).
example(e364,f18,negative).
example(e365,f1,positive).
example(e365,f2,negative).
example(e365,f3,negative).
example(e365,f4,positive).
example(e365,f5,negative).
example(e365,f6,negative).
example(e365,f7,negative).
example(e365,f8,negative).
example(e365,f9,positive).
example(e365,f10,negative).
example(e365,f11,positive).
example(e365,f12,negative).
example(e365,f13,negative).
example(e365,f14,positive).
example(e365,f15,negative).
example(e365,f16,positive).
example(e365,f17,negative).
example(e365,f18,positive).
example(e366,f1,positive).
example(e366,f2,negative).
example(e366,f3,positive).
example(e366,f4,negative).
example(e366,f5,negative).
example(e366,f6,positive).
example(e366,f7,negative).
example(e366,f8,positive).
example(e366,f9,negative).
example(e366,f10,positive).
example(e366,f11,negative).
example(e366,f12,positive).
example(e366,f13,negative).
example(e366,f14,positive).
example(e366,f15,positive).
example(e366,f16,negative).
example(e366,f17,positive).
example(e366,f18,negative).
example(e367,f1,positive).
example(e367,f2,negative).
example(e367,f3,positive).
example(e367,f4,negative).
example(e367,f5,negative).
example(e367,f6,positive).
example(e367,f7,negative).
example(e367,f8,positive).
example(e367,f9,negative).
example(e367,f10,positive).
example(e367,f11,negative).
example(e367,f12,positive).
example(e367,f13,positive).
example(e367,f14,negative).
example(e367,f15,negative).
example(e367,f16,positive).
example(e367,f17,positive).
example(e367,f18,negative).
example(e368,f1,positive).
example(e368,f2,negative).
example(e368,f3,positive).
example(e368,f4,negative).
example(e368,f5,negative).
example(e368,f6,positive).
example(e368,f7,negative).
example(e368,f8,positive).
example(e368,f9,negative).
example(e368,f10,positive).
example(e368,f11,negative).
example(e368,f12,positive).
example(e368,f13,positive).
example(e368,f14,negative).
example(e368,f15,positive).
example(e368,f16,negative).
example(e368,f17,negative).
example(e368,f18,positive).
example(e369,f1,positive).
example(e369,f2,negative).
example(e369,f3,positive).
example(e369,f4,negative).
example(e369,f5,negative).
example(e369,f6,positive).
example(e369,f7,negative).
example(e369,f8,positive).
example(e369,f9,negative).
example(e369,f10,positive).
example(e369,f11,negative).
example(e369,f12,positive).
example(e369,f13,positive).
example(e369,f14,negative).
example(e369,f15,negative).
example(e369,f16,negative).
example(e369,f17,negative).
example(e369,f18,negative).
example(e370,f1,positive).
example(e370,f2,negative).
example(e370,f3,positive).
example(e370,f4,negative).
example(e370,f5,negative).
example(e370,f6,positive).
example(e370,f7,negative).
example(e370,f8,positive).
example(e370,f9,negative).
example(e370,f10,positive).
example(e370,f11,negative).
example(e370,f12,positive).
example(e370,f13,negative).
example(e370,f14,negative).
example(e370,f15,positive).
example(e370,f16,negative).
example(e370,f17,negative).
example(e370,f18,negative).
example(e371,f1,positive).
example(e371,f2,negative).
example(e371,f3,positive).
example(e371,f4,negative).
example(e371,f5,negative).
example(e371,f6,positive).
example(e371,f7,negative).
example(e371,f8,positive).
example(e371,f9,negative).
example(e371,f10,positive).
example(e371,f11,negative).
example(e371,f12,positive).
example(e371,f13,negative).
example(e371,f14,negative).
example(e371,f15,negative).
example(e371,f16,negative).
example(e371,f17,positive).
example(e371,f18,negative).
example(e372,f1,positive).
example(e372,f2,negative).
example(e372,f3,positive).
example(e372,f4,negative).
example(e372,f5,negative).
example(e372,f6,positive).
example(e372,f7,negative).
example(e372,f8,positive).
example(e372,f9,negative).
example(e372,f10,positive).
example(e372,f11,positive).
example(e372,f12,negative).
example(e372,f13,negative).
example(e372,f14,positive).
example(e372,f15,negative).
example(e372,f16,positive).
example(e372,f17,positive).
example(e372,f18,negative).
example(e373,f1,positive).
example(e373,f2,negative).
example(e373,f3,positive).
example(e373,f4,negative).
example(e373,f5,negative).
example(e373,f6,positive).
example(e373,f7,negative).
example(e373,f8,positive).
example(e373,f9,negative).
example(e373,f10,positive).
example(e373,f11,positive).
example(e373,f12,negative).
example(e373,f13,negative).
example(e373,f14,positive).
example(e373,f15,positive).
example(e373,f16,negative).
example(e373,f17,negative).
example(e373,f18,positive).
example(e374,f1,positive).
example(e374,f2,negative).
example(e374,f3,positive).
example(e374,f4,negative).
example(e374,f5,negative).
example(e374,f6,positive).
example(e374,f7,negative).
example(e374,f8,positive).
example(e374,f9,negative).
example(e374,f10,positive).
example(e374,f11,positive).
example(e374,f12,negative).
example(e374,f13,negative).
example(e374,f14,positive).
example(e374,f15,negative).
example(e374,f16,negative).
example(e374,f17,negative).
example(e374,f18,negative).
example(e375,f1,positive).
example(e375,f2,negative).
example(e375,f3,positive).
example(e375,f4,negative).
example(e375,f5,negative).
example(e375,f6,positive).
example(e375,f7,negative).
example(e375,f8,positive).
example(e375,f9,negative).
example(e375,f10,positive).
example(e375,f11,negative).
example(e375,f12,negative).
example(e375,f13,negative).
example(e375,f14,positive).
example(e375,f15,positive).
example(e375,f16,negative).
example(e375,f17,negative).
example(e375,f18,negative).
example(e376,f1,positive).
example(e376,f2,negative).
example(e376,f3,positive).
example(e376,f4,negative).
example(e376,f5,negative).
example(e376,f6,positive).
example(e376,f7,negative).
example(e376,f8,positive).
example(e376,f9,negative).
example(e376,f10,positive).
example(e376,f11,negative).
example(e376,f12,negative).
example(e376,f13,negative).
example(e376,f14,positive).
example(e376,f15,negative).
example(e376,f16,negative).
example(e376,f17,positive).
example(e376,f18,negative).
example(e377,f1,positive).
example(e377,f2,negative).
example(e377,f3,positive).
example(e377,f4,negative).
example(e377,f5,negative).
example(e377,f6,positive).
example(e377,f7,negative).
example(e377,f8,positive).
example(e377,f9,positive).
example(e377,f10,negative).
example(e377,f11,negative).
example(e377,f12,positive).
example(e377,f13,positive).
example(e377,f14,negative).
example(e377,f15,negative).
example(e377,f16,positive).
example(e377,f17,negative).
example(e377,f18,positive).
example(e378,f1,positive).
example(e378,f2,negative).
example(e378,f3,positive).
example(e378,f4,negative).
example(e378,f5,negative).
example(e378,f6,positive).
example(e378,f7,negative).
example(e378,f8,positive).
example(e378,f9,positive).
example(e378,f10,negative).
example(e378,f11,negative).
example(e378,f12,positive).
example(e378,f13,negative).
example(e378,f14,negative).
example(e378,f15,negative).
example(e378,f16,negative).
example(e378,f17,negative).
example(e378,f18,positive).
example(e379,f1,positive).
example(e379,f2,negative).
example(e379,f3,positive).
example(e379,f4,negative).
example(e379,f5,negative).
example(e379,f6,positive).
example(e379,f7,negative).
example(e379,f8,positive).
example(e379,f9,positive).
example(e379,f10,negative).
example(e379,f11,positive).
example(e379,f12,negative).
example(e379,f13,negative).
example(e379,f14,positive).
example(e379,f15,negative).
example(e379,f16,positive).
example(e379,f17,negative).
example(e379,f18,positive).
example(e380,f1,positive).
example(e380,f2,negative).
example(e380,f3,positive).
example(e380,f4,negative).
example(e380,f5,negative).
example(e380,f6,positive).
example(e380,f7,negative).
example(e380,f8,positive).
example(e380,f9,negative).
example(e380,f10,negative).
example(e380,f11,negative).
example(e380,f12,positive).
example(e380,f13,positive).
example(e380,f14,negative).
example(e380,f15,negative).
example(e380,f16,negative).
example(e380,f17,negative).
example(e380,f18,positive).
example(e381,f1,positive).
example(e381,f2,negative).
example(e381,f3,positive).
example(e381,f4,negative).
example(e381,f5,negative).
example(e381,f6,positive).
example(e381,f7,negative).
example(e381,f8,positive).
example(e381,f9,negative).
example(e381,f10,negative).
example(e381,f11,negative).
example(e381,f12,positive).
example(e381,f13,negative).
example(e381,f14,negative).
example(e381,f15,positive).
example(e381,f16,negative).
example(e381,f17,negative).
example(e381,f18,positive).
example(e382,f1,positive).
example(e382,f2,negative).
example(e382,f3,positive).
example(e382,f4,negative).
example(e382,f5,negative).
example(e382,f6,positive).
example(e382,f7,positive).
example(e382,f8,negative).
example(e382,f9,negative).
example(e382,f10,positive).
example(e382,f11,negative).
example(e382,f12,positive).
example(e382,f13,negative).
example(e382,f14,positive).
example(e382,f15,negative).
example(e382,f16,positive).
example(e382,f17,positive).
example(e382,f18,negative).
example(e383,f1,positive).
example(e383,f2,negative).
example(e383,f3,positive).
example(e383,f4,negative).
example(e383,f5,negative).
example(e383,f6,positive).
example(e383,f7,positive).
example(e383,f8,negative).
example(e383,f9,negative).
example(e383,f10,positive).
example(e383,f11,negative).
example(e383,f12,positive).
example(e383,f13,negative).
example(e383,f14,positive).
example(e383,f15,positive).
example(e383,f16,negative).
example(e383,f17,negative).
example(e383,f18,positive).
example(e384,f1,positive).
example(e384,f2,negative).
example(e384,f3,positive).
example(e384,f4,negative).
example(e384,f5,negative).
example(e384,f6,positive).
example(e384,f7,positive).
example(e384,f8,negative).
example(e384,f9,negative).
example(e384,f10,positive).
example(e384,f11,negative).
example(e384,f12,positive).
example(e384,f13,negative).
example(e384,f14,positive).
example(e384,f15,negative).
example(e384,f16,negative).
example(e384,f17,negative).
example(e384,f18,negative).
example(e385,f1,positive).
example(e385,f2,negative).
example(e385,f3,positive).
example(e385,f4,negative).
example(e385,f5,negative).
example(e385,f6,positive).
example(e385,f7,positive).
example(e385,f8,negative).
example(e385,f9,negative).
example(e385,f10,positive).
example(e385,f11,negative).
example(e385,f12,positive).
example(e385,f13,negative).
example(e385,f14,negative).
example(e385,f15,negative).
example(e385,f16,negative).
example(e385,f17,negative).
example(e385,f18,positive).
example(e386,f1,positive).
example(e386,f2,negative).
example(e386,f3,positive).
example(e386,f4,negative).
example(e386,f5,negative).
example(e386,f6,positive).
example(e386,f7,positive).
example(e386,f8,negative).
example(e386,f9,negative).
example(e386,f10,positive).
example(e386,f11,positive).
example(e386,f12,negative).
example(e386,f13,negative).
example(e386,f14,positive).
example(e386,f15,negative).
example(e386,f16,positive).
example(e386,f17,negative).
example(e386,f18,positive).
example(e387,f1,positive).
example(e387,f2,negative).
example(e387,f3,positive).
example(e387,f4,negative).
example(e387,f5,negative).
example(e387,f6,positive).
example(e387,f7,positive).
example(e387,f8,negative).
example(e387,f9,negative).
example(e387,f10,positive).
example(e387,f11,negative).
example(e387,f12,negative).
example(e387,f13,negative).
example(e387,f14,positive).
example(e387,f15,negative).
example(e387,f16,positive).
example(e387,f17,negative).
example(e387,f18,negative).
example(e388,f1,positive).
example(e388,f2,negative).
example(e388,f3,positive).
example(e388,f4,negative).
example(e388,f5,negative).
example(e388,f6,positive).
example(e388,f7,positive).
example(e388,f8,negative).
example(e388,f9,negative).
example(e388,f10,positive).
example(e388,f11,negative).
example(e388,f12,negative).
example(e388,f13,negative).
example(e388,f14,positive).
example(e388,f15,negative).
example(e388,f16,negative).
example(e388,f17,negative).
example(e388,f18,positive).
example(e389,f1,positive).
example(e389,f2,negative).
example(e389,f3,positive).
example(e389,f4,negative).
example(e389,f5,negative).
example(e389,f6,positive).
example(e389,f7,positive).
example(e389,f8,negative).
example(e389,f9,positive).
example(e389,f10,negative).
example(e389,f11,negative).
example(e389,f12,positive).
example(e389,f13,negative).
example(e389,f14,positive).
example(e389,f15,negative).
example(e389,f16,positive).
example(e389,f17,negative).
example(e389,f18,positive).
example(e390,f1,positive).
example(e390,f2,negative).
example(e390,f3,positive).
example(e390,f4,negative).
example(e390,f5,negative).
example(e390,f6,positive).
example(e390,f7,positive).
example(e390,f8,negative).
example(e390,f9,negative).
example(e390,f10,negative).
example(e390,f11,negative).
example(e390,f12,positive).
example(e390,f13,negative).
example(e390,f14,positive).
example(e390,f15,negative).
example(e390,f16,negative).
example(e390,f17,negative).
example(e390,f18,positive).
example(e391,f1,positive).
example(e391,f2,negative).
example(e391,f3,positive).
example(e391,f4,negative).
example(e391,f5,negative).
example(e391,f6,positive).
example(e391,f7,positive).
example(e391,f8,negative).
example(e391,f9,negative).
example(e391,f10,negative).
example(e391,f11,negative).
example(e391,f12,positive).
example(e391,f13,negative).
example(e391,f14,negative).
example(e391,f15,negative).
example(e391,f16,positive).
example(e391,f17,negative).
example(e391,f18,positive).
example(e392,f1,positive).
example(e392,f2,negative).
example(e392,f3,positive).
example(e392,f4,negative).
example(e392,f5,negative).
example(e392,f6,positive).
example(e392,f7,positive).
example(e392,f8,negative).
example(e392,f9,negative).
example(e392,f10,negative).
example(e392,f11,negative).
example(e392,f12,negative).
example(e392,f13,negative).
example(e392,f14,positive).
example(e392,f15,negative).
example(e392,f16,positive).
example(e392,f17,negative).
example(e392,f18,positive).
example(e393,f1,positive).
example(e393,f2,negative).
example(e393,f3,positive).
example(e393,f4,negative).
example(e393,f5,negative).
example(e393,f6,positive).
example(e393,f7,negative).
example(e393,f8,negative).
example(e393,f9,negative).
example(e393,f10,positive).
example(e393,f11,negative).
example(e393,f12,positive).
example(e393,f13,negative).
example(e393,f14,positive).
example(e393,f15,positive).
example(e393,f16,negative).
example(e393,f17,negative).
example(e393,f18,negative).
example(e394,f1,positive).
example(e394,f2,negative).
example(e394,f3,positive).
example(e394,f4,negative).
example(e394,f5,negative).
example(e394,f6,positive).
example(e394,f7,negative).
example(e394,f8,negative).
example(e394,f9,negative).
example(e394,f10,positive).
example(e394,f11,negative).
example(e394,f12,positive).
example(e394,f13,negative).
example(e394,f14,positive).
example(e394,f15,negative).
example(e394,f16,negative).
example(e394,f17,positive).
example(e394,f18,negative).
example(e395,f1,positive).
example(e395,f2,negative).
example(e395,f3,positive).
example(e395,f4,negative).
example(e395,f5,negative).
example(e395,f6,positive).
example(e395,f7,negative).
example(e395,f8,negative).
example(e395,f9,negative).
example(e395,f10,positive).
example(e395,f11,negative).
example(e395,f12,positive).
example(e395,f13,positive).
example(e395,f14,negative).
example(e395,f15,negative).
example(e395,f16,negative).
example(e395,f17,negative).
example(e395,f18,positive).
example(e396,f1,positive).
example(e396,f2,negative).
example(e396,f3,positive).
example(e396,f4,negative).
example(e396,f5,negative).
example(e396,f6,positive).
example(e396,f7,negative).
example(e396,f8,negative).
example(e396,f9,negative).
example(e396,f10,positive).
example(e396,f11,negative).
example(e396,f12,positive).
example(e396,f13,negative).
example(e396,f14,negative).
example(e396,f15,positive).
example(e396,f16,negative).
example(e396,f17,negative).
example(e396,f18,positive).
example(e397,f1,positive).
example(e397,f2,negative).
example(e397,f3,positive).
example(e397,f4,negative).
example(e397,f5,negative).
example(e397,f6,positive).
example(e397,f7,negative).
example(e397,f8,negative).
example(e397,f9,negative).
example(e397,f10,positive).
example(e397,f11,positive).
example(e397,f12,negative).
example(e397,f13,negative).
example(e397,f14,positive).
example(e397,f15,negative).
example(e397,f16,positive).
example(e397,f17,negative).
example(e397,f18,negative).
example(e398,f1,positive).
example(e398,f2,negative).
example(e398,f3,positive).
example(e398,f4,negative).
example(e398,f5,negative).
example(e398,f6,positive).
example(e398,f7,negative).
example(e398,f8,negative).
example(e398,f9,negative).
example(e398,f10,positive).
example(e398,f11,positive).
example(e398,f12,negative).
example(e398,f13,negative).
example(e398,f14,positive).
example(e398,f15,negative).
example(e398,f16,negative).
example(e398,f17,negative).
example(e398,f18,positive).
example(e399,f1,positive).
example(e399,f2,negative).
example(e399,f3,positive).
example(e399,f4,negative).
example(e399,f5,negative).
example(e399,f6,positive).
example(e399,f7,negative).
example(e399,f8,negative).
example(e399,f9,negative).
example(e399,f10,positive).
example(e399,f11,negative).
example(e399,f12,negative).
example(e399,f13,negative).
example(e399,f14,positive).
example(e399,f15,negative).
example(e399,f16,positive).
example(e399,f17,positive).
example(e399,f18,negative).
example(e400,f1,positive).
example(e400,f2,negative).
example(e400,f3,positive).
example(e400,f4,negative).
example(e400,f5,negative).
example(e400,f6,positive).
example(e400,f7,negative).
example(e400,f8,negative).
example(e400,f9,negative).
example(e400,f10,positive).
example(e400,f11,negative).
example(e400,f12,negative).
example(e400,f13,negative).
example(e400,f14,positive).
example(e400,f15,positive).
example(e400,f16,negative).
example(e400,f17,negative).
example(e400,f18,positive).
example(e401,f1,positive).
example(e401,f2,negative).
example(e401,f3,positive).
example(e401,f4,negative).
example(e401,f5,negative).
example(e401,f6,positive).
example(e401,f7,negative).
example(e401,f8,negative).
example(e401,f9,negative).
example(e401,f10,positive).
example(e401,f11,negative).
example(e401,f12,negative).
example(e401,f13,negative).
example(e401,f14,positive).
example(e401,f15,negative).
example(e401,f16,negative).
example(e401,f17,negative).
example(e401,f18,negative).
example(e402,f1,positive).
example(e402,f2,negative).
example(e402,f3,positive).
example(e402,f4,negative).
example(e402,f5,negative).
example(e402,f6,positive).
example(e402,f7,negative).
example(e402,f8,negative).
example(e402,f9,positive).
example(e402,f10,negative).
example(e402,f11,negative).
example(e402,f12,positive).
example(e402,f13,negative).
example(e402,f14,positive).
example(e402,f15,negative).
example(e402,f16,negative).
example(e402,f17,negative).
example(e402,f18,positive).
example(e403,f1,positive).
example(e403,f2,negative).
example(e403,f3,positive).
example(e403,f4,negative).
example(e403,f5,negative).
example(e403,f6,positive).
example(e403,f7,negative).
example(e403,f8,negative).
example(e403,f9,positive).
example(e403,f10,negative).
example(e403,f11,negative).
example(e403,f12,positive).
example(e403,f13,negative).
example(e403,f14,negative).
example(e403,f15,negative).
example(e403,f16,positive).
example(e403,f17,negative).
example(e403,f18,positive).
example(e404,f1,positive).
example(e404,f2,negative).
example(e404,f3,positive).
example(e404,f4,negative).
example(e404,f5,negative).
example(e404,f6,positive).
example(e404,f7,negative).
example(e404,f8,negative).
example(e404,f9,positive).
example(e404,f10,negative).
example(e404,f11,negative).
example(e404,f12,negative).
example(e404,f13,negative).
example(e404,f14,positive).
example(e404,f15,negative).
example(e404,f16,positive).
example(e404,f17,negative).
example(e404,f18,positive).
example(e405,f1,positive).
example(e405,f2,negative).
example(e405,f3,positive).
example(e405,f4,negative).
example(e405,f5,negative).
example(e405,f6,positive).
example(e405,f7,negative).
example(e405,f8,negative).
example(e405,f9,negative).
example(e405,f10,negative).
example(e405,f11,negative).
example(e405,f12,positive).
example(e405,f13,negative).
example(e405,f14,positive).
example(e405,f15,positive).
example(e405,f16,negative).
example(e405,f17,negative).
example(e405,f18,positive).
example(e406,f1,positive).
example(e406,f2,negative).
example(e406,f3,positive).
example(e406,f4,negative).
example(e406,f5,negative).
example(e406,f6,positive).
example(e406,f7,negative).
example(e406,f8,negative).
example(e406,f9,negative).
example(e406,f10,negative).
example(e406,f11,negative).
example(e406,f12,positive).
example(e406,f13,positive).
example(e406,f14,negative).
example(e406,f15,negative).
example(e406,f16,positive).
example(e406,f17,negative).
example(e406,f18,positive).
example(e407,f1,positive).
example(e407,f2,negative).
example(e407,f3,positive).
example(e407,f4,negative).
example(e407,f5,negative).
example(e407,f6,positive).
example(e407,f7,negative).
example(e407,f8,negative).
example(e407,f9,negative).
example(e407,f10,negative).
example(e407,f11,negative).
example(e407,f12,positive).
example(e407,f13,negative).
example(e407,f14,negative).
example(e407,f15,negative).
example(e407,f16,negative).
example(e407,f17,negative).
example(e407,f18,positive).
example(e408,f1,positive).
example(e408,f2,negative).
example(e408,f3,positive).
example(e408,f4,negative).
example(e408,f5,negative).
example(e408,f6,positive).
example(e408,f7,negative).
example(e408,f8,negative).
example(e408,f9,negative).
example(e408,f10,negative).
example(e408,f11,positive).
example(e408,f12,negative).
example(e408,f13,negative).
example(e408,f14,positive).
example(e408,f15,negative).
example(e408,f16,positive).
example(e408,f17,negative).
example(e408,f18,positive).
example(e409,f1,positive).
example(e409,f2,negative).
example(e409,f3,positive).
example(e409,f4,negative).
example(e409,f5,negative).
example(e409,f6,negative).
example(e409,f7,negative).
example(e409,f8,positive).
example(e409,f9,negative).
example(e409,f10,positive).
example(e409,f11,negative).
example(e409,f12,positive).
example(e409,f13,negative).
example(e409,f14,positive).
example(e409,f15,positive).
example(e409,f16,negative).
example(e409,f17,negative).
example(e409,f18,negative).
example(e410,f1,positive).
example(e410,f2,negative).
example(e410,f3,positive).
example(e410,f4,negative).
example(e410,f5,negative).
example(e410,f6,negative).
example(e410,f7,negative).
example(e410,f8,positive).
example(e410,f9,negative).
example(e410,f10,positive).
example(e410,f11,negative).
example(e410,f12,positive).
example(e410,f13,negative).
example(e410,f14,positive).
example(e410,f15,negative).
example(e410,f16,negative).
example(e410,f17,positive).
example(e410,f18,negative).
example(e411,f1,positive).
example(e411,f2,negative).
example(e411,f3,positive).
example(e411,f4,negative).
example(e411,f5,negative).
example(e411,f6,negative).
example(e411,f7,negative).
example(e411,f8,positive).
example(e411,f9,negative).
example(e411,f10,positive).
example(e411,f11,negative).
example(e411,f12,positive).
example(e411,f13,positive).
example(e411,f14,negative).
example(e411,f15,negative).
example(e411,f16,positive).
example(e411,f17,negative).
example(e411,f18,negative).
example(e412,f1,positive).
example(e412,f2,negative).
example(e412,f3,positive).
example(e412,f4,negative).
example(e412,f5,negative).
example(e412,f6,negative).
example(e412,f7,negative).
example(e412,f8,positive).
example(e412,f9,negative).
example(e412,f10,positive).
example(e412,f11,negative).
example(e412,f12,positive).
example(e412,f13,positive).
example(e412,f14,negative).
example(e412,f15,negative).
example(e412,f16,negative).
example(e412,f17,negative).
example(e412,f18,positive).
example(e413,f1,positive).
example(e413,f2,negative).
example(e413,f3,positive).
example(e413,f4,negative).
example(e413,f5,negative).
example(e413,f6,negative).
example(e413,f7,negative).
example(e413,f8,positive).
example(e413,f9,negative).
example(e413,f10,positive).
example(e413,f11,negative).
example(e413,f12,positive).
example(e413,f13,negative).
example(e413,f14,negative).
example(e413,f15,negative).
example(e413,f16,positive).
example(e413,f17,positive).
example(e413,f18,negative).
example(e414,f1,positive).
example(e414,f2,negative).
example(e414,f3,positive).
example(e414,f4,negative).
example(e414,f5,negative).
example(e414,f6,negative).
example(e414,f7,negative).
example(e414,f8,positive).
example(e414,f9,negative).
example(e414,f10,positive).
example(e414,f11,negative).
example(e414,f12,positive).
example(e414,f13,negative).
example(e414,f14,negative).
example(e414,f15,positive).
example(e414,f16,negative).
example(e414,f17,negative).
example(e414,f18,positive).
example(e415,f1,positive).
example(e415,f2,negative).
example(e415,f3,positive).
example(e415,f4,negative).
example(e415,f5,negative).
example(e415,f6,negative).
example(e415,f7,negative).
example(e415,f8,positive).
example(e415,f9,negative).
example(e415,f10,positive).
example(e415,f11,negative).
example(e415,f12,positive).
example(e415,f13,negative).
example(e415,f14,negative).
example(e415,f15,negative).
example(e415,f16,negative).
example(e415,f17,negative).
example(e415,f18,negative).
example(e416,f1,positive).
example(e416,f2,negative).
example(e416,f3,positive).
example(e416,f4,negative).
example(e416,f5,negative).
example(e416,f6,negative).
example(e416,f7,negative).
example(e416,f8,positive).
example(e416,f9,positive).
example(e416,f10,negative).
example(e416,f11,negative).
example(e416,f12,negative).
example(e416,f13,negative).
example(e416,f14,positive).
example(e416,f15,negative).
example(e416,f16,positive).
example(e416,f17,negative).
example(e416,f18,positive).
example(e417,f1,positive).
example(e417,f2,negative).
example(e417,f3,positive).
example(e417,f4,negative).
example(e417,f5,negative).
example(e417,f6,negative).
example(e417,f7,negative).
example(e417,f8,positive).
example(e417,f9,negative).
example(e417,f10,negative).
example(e417,f11,positive).
example(e417,f12,negative).
example(e417,f13,negative).
example(e417,f14,positive).
example(e417,f15,negative).
example(e417,f16,positive).
example(e417,f17,negative).
example(e417,f18,positive).
example(e418,f1,positive).
example(e418,f2,negative).
example(e418,f3,positive).
example(e418,f4,negative).
example(e418,f5,negative).
example(e418,f6,negative).
example(e418,f7,positive).
example(e418,f8,negative).
example(e418,f9,negative).
example(e418,f10,positive).
example(e418,f11,negative).
example(e418,f12,negative).
example(e418,f13,negative).
example(e418,f14,positive).
example(e418,f15,negative).
example(e418,f16,positive).
example(e418,f17,negative).
example(e418,f18,positive).
example(e419,f1,positive).
example(e419,f2,negative).
example(e419,f3,positive).
example(e419,f4,negative).
example(e419,f5,negative).
example(e419,f6,negative).
example(e419,f7,positive).
example(e419,f8,negative).
example(e419,f9,negative).
example(e419,f10,negative).
example(e419,f11,negative).
example(e419,f12,positive).
example(e419,f13,negative).
example(e419,f14,positive).
example(e419,f15,negative).
example(e419,f16,positive).
example(e419,f17,negative).
example(e419,f18,positive).
example(e420,f1,positive).
example(e420,f2,negative).
example(e420,f3,positive).
example(e420,f4,negative).
example(e420,f5,negative).
example(e420,f6,negative).
example(e420,f7,negative).
example(e420,f8,negative).
example(e420,f9,negative).
example(e420,f10,positive).
example(e420,f11,positive).
example(e420,f12,negative).
example(e420,f13,negative).
example(e420,f14,positive).
example(e420,f15,negative).
example(e420,f16,positive).
example(e420,f17,negative).
example(e420,f18,positive).
example(e421,f1,positive).
example(e421,f2,negative).
example(e421,f3,positive).
example(e421,f4,negative).
example(e421,f5,negative).
example(e421,f6,negative).
example(e421,f7,negative).
example(e421,f8,negative).
example(e421,f9,positive).
example(e421,f10,negative).
example(e421,f11,negative).
example(e421,f12,positive).
example(e421,f13,negative).
example(e421,f14,positive).
example(e421,f15,negative).
example(e421,f16,positive).
example(e421,f17,negative).
example(e421,f18,positive).
example(e422,f1,positive).
example(e422,f2,negative).
example(e422,f3,positive).
example(e422,f4,negative).
example(e422,f5,negative).
example(e422,f6,negative).
example(e422,f7,negative).
example(e422,f8,negative).
example(e422,f9,negative).
example(e422,f10,negative).
example(e422,f11,negative).
example(e422,f12,negative).
example(e422,f13,negative).
example(e422,f14,positive).
example(e422,f15,negative).
example(e422,f16,positive).
example(e422,f17,negative).
example(e422,f18,positive).
example(e423,f1,positive).
example(e423,f2,negative).
example(e423,f3,negative).
example(e423,f4,negative).
example(e423,f5,negative).
example(e423,f6,positive).
example(e423,f7,negative).
example(e423,f8,positive).
example(e423,f9,negative).
example(e423,f10,positive).
example(e423,f11,negative).
example(e423,f12,positive).
example(e423,f13,positive).
example(e423,f14,negative).
example(e423,f15,positive).
example(e423,f16,negative).
example(e423,f17,negative).
example(e423,f18,negative).
example(e424,f1,positive).
example(e424,f2,negative).
example(e424,f3,negative).
example(e424,f4,negative).
example(e424,f5,negative).
example(e424,f6,positive).
example(e424,f7,negative).
example(e424,f8,positive).
example(e424,f9,negative).
example(e424,f10,positive).
example(e424,f11,negative).
example(e424,f12,positive).
example(e424,f13,positive).
example(e424,f14,negative).
example(e424,f15,negative).
example(e424,f16,negative).
example(e424,f17,positive).
example(e424,f18,negative).
example(e425,f1,positive).
example(e425,f2,negative).
example(e425,f3,negative).
example(e425,f4,negative).
example(e425,f5,negative).
example(e425,f6,positive).
example(e425,f7,negative).
example(e425,f8,positive).
example(e425,f9,negative).
example(e425,f10,positive).
example(e425,f11,negative).
example(e425,f12,positive).
example(e425,f13,negative).
example(e425,f14,negative).
example(e425,f15,positive).
example(e425,f16,negative).
example(e425,f17,positive).
example(e425,f18,negative).
example(e426,f1,positive).
example(e426,f2,negative).
example(e426,f3,negative).
example(e426,f4,negative).
example(e426,f5,negative).
example(e426,f6,positive).
example(e426,f7,negative).
example(e426,f8,positive).
example(e426,f9,negative).
example(e426,f10,positive).
example(e426,f11,positive).
example(e426,f12,negative).
example(e426,f13,negative).
example(e426,f14,positive).
example(e426,f15,positive).
example(e426,f16,negative).
example(e426,f17,negative).
example(e426,f18,negative).
example(e427,f1,positive).
example(e427,f2,negative).
example(e427,f3,negative).
example(e427,f4,negative).
example(e427,f5,negative).
example(e427,f6,positive).
example(e427,f7,negative).
example(e427,f8,positive).
example(e427,f9,negative).
example(e427,f10,positive).
example(e427,f11,positive).
example(e427,f12,negative).
example(e427,f13,negative).
example(e427,f14,positive).
example(e427,f15,negative).
example(e427,f16,negative).
example(e427,f17,positive).
example(e427,f18,negative).
example(e428,f1,positive).
example(e428,f2,negative).
example(e428,f3,negative).
example(e428,f4,negative).
example(e428,f5,negative).
example(e428,f6,positive).
example(e428,f7,negative).
example(e428,f8,positive).
example(e428,f9,negative).
example(e428,f10,positive).
example(e428,f11,negative).
example(e428,f12,negative).
example(e428,f13,negative).
example(e428,f14,positive).
example(e428,f15,positive).
example(e428,f16,negative).
example(e428,f17,positive).
example(e428,f18,negative).
example(e429,f1,positive).
example(e429,f2,negative).
example(e429,f3,negative).
example(e429,f4,negative).
example(e429,f5,negative).
example(e429,f6,positive).
example(e429,f7,negative).
example(e429,f8,positive).
example(e429,f9,positive).
example(e429,f10,negative).
example(e429,f11,negative).
example(e429,f12,positive).
example(e429,f13,positive).
example(e429,f14,negative).
example(e429,f15,negative).
example(e429,f16,negative).
example(e429,f17,negative).
example(e429,f18,positive).
example(e430,f1,positive).
example(e430,f2,negative).
example(e430,f3,negative).
example(e430,f4,negative).
example(e430,f5,negative).
example(e430,f6,positive).
example(e430,f7,negative).
example(e430,f8,positive).
example(e430,f9,positive).
example(e430,f10,negative).
example(e430,f11,negative).
example(e430,f12,positive).
example(e430,f13,negative).
example(e430,f14,negative).
example(e430,f15,positive).
example(e430,f16,negative).
example(e430,f17,negative).
example(e430,f18,positive).
example(e431,f1,positive).
example(e431,f2,negative).
example(e431,f3,negative).
example(e431,f4,negative).
example(e431,f5,negative).
example(e431,f6,positive).
example(e431,f7,negative).
example(e431,f8,positive).
example(e431,f9,negative).
example(e431,f10,negative).
example(e431,f11,negative).
example(e431,f12,positive).
example(e431,f13,positive).
example(e431,f14,negative).
example(e431,f15,positive).
example(e431,f16,negative).
example(e431,f17,negative).
example(e431,f18,positive).
example(e432,f1,positive).
example(e432,f2,negative).
example(e432,f3,negative).
example(e432,f4,negative).
example(e432,f5,negative).
example(e432,f6,positive).
example(e432,f7,positive).
example(e432,f8,negative).
example(e432,f9,negative).
example(e432,f10,positive).
example(e432,f11,negative).
example(e432,f12,positive).
example(e432,f13,negative).
example(e432,f14,positive).
example(e432,f15,positive).
example(e432,f16,negative).
example(e432,f17,negative).
example(e432,f18,negative).
example(e433,f1,positive).
example(e433,f2,negative).
example(e433,f3,negative).
example(e433,f4,negative).
example(e433,f5,negative).
example(e433,f6,positive).
example(e433,f7,positive).
example(e433,f8,negative).
example(e433,f9,negative).
example(e433,f10,positive).
example(e433,f11,negative).
example(e433,f12,positive).
example(e433,f13,negative).
example(e433,f14,positive).
example(e433,f15,negative).
example(e433,f16,negative).
example(e433,f17,positive).
example(e433,f18,negative).
example(e434,f1,positive).
example(e434,f2,negative).
example(e434,f3,negative).
example(e434,f4,negative).
example(e434,f5,negative).
example(e434,f6,positive).
example(e434,f7,positive).
example(e434,f8,negative).
example(e434,f9,negative).
example(e434,f10,positive).
example(e434,f11,negative).
example(e434,f12,positive).
example(e434,f13,negative).
example(e434,f14,negative).
example(e434,f15,positive).
example(e434,f16,negative).
example(e434,f17,negative).
example(e434,f18,positive).
example(e435,f1,positive).
example(e435,f2,negative).
example(e435,f3,negative).
example(e435,f4,negative).
example(e435,f5,negative).
example(e435,f6,positive).
example(e435,f7,positive).
example(e435,f8,negative).
example(e435,f9,negative).
example(e435,f10,positive).
example(e435,f11,positive).
example(e435,f12,negative).
example(e435,f13,negative).
example(e435,f14,positive).
example(e435,f15,negative).
example(e435,f16,positive).
example(e435,f17,negative).
example(e435,f18,negative).
example(e436,f1,positive).
example(e436,f2,negative).
example(e436,f3,negative).
example(e436,f4,negative).
example(e436,f5,negative).
example(e436,f6,positive).
example(e436,f7,positive).
example(e436,f8,negative).
example(e436,f9,negative).
example(e436,f10,positive).
example(e436,f11,positive).
example(e436,f12,negative).
example(e436,f13,negative).
example(e436,f14,positive).
example(e436,f15,negative).
example(e436,f16,negative).
example(e436,f17,negative).
example(e436,f18,positive).
example(e437,f1,positive).
example(e437,f2,negative).
example(e437,f3,negative).
example(e437,f4,negative).
example(e437,f5,negative).
example(e437,f6,positive).
example(e437,f7,positive).
example(e437,f8,negative).
example(e437,f9,negative).
example(e437,f10,positive).
example(e437,f11,negative).
example(e437,f12,negative).
example(e437,f13,negative).
example(e437,f14,positive).
example(e437,f15,negative).
example(e437,f16,positive).
example(e437,f17,positive).
example(e437,f18,negative).
example(e438,f1,positive).
example(e438,f2,negative).
example(e438,f3,negative).
example(e438,f4,negative).
example(e438,f5,negative).
example(e438,f6,positive).
example(e438,f7,positive).
example(e438,f8,negative).
example(e438,f9,negative).
example(e438,f10,positive).
example(e438,f11,negative).
example(e438,f12,negative).
example(e438,f13,negative).
example(e438,f14,positive).
example(e438,f15,positive).
example(e438,f16,negative).
example(e438,f17,negative).
example(e438,f18,positive).
example(e439,f1,positive).
example(e439,f2,negative).
example(e439,f3,negative).
example(e439,f4,negative).
example(e439,f5,negative).
example(e439,f6,positive).
example(e439,f7,positive).
example(e439,f8,negative).
example(e439,f9,negative).
example(e439,f10,positive).
example(e439,f11,negative).
example(e439,f12,negative).
example(e439,f13,negative).
example(e439,f14,positive).
example(e439,f15,negative).
example(e439,f16,negative).
example(e439,f17,negative).
example(e439,f18,negative).
example(e440,f1,positive).
example(e440,f2,negative).
example(e440,f3,negative).
example(e440,f4,negative).
example(e440,f5,negative).
example(e440,f6,positive).
example(e440,f7,positive).
example(e440,f8,negative).
example(e440,f9,positive).
example(e440,f10,negative).
example(e440,f11,negative).
example(e440,f12,positive).
example(e440,f13,negative).
example(e440,f14,positive).
example(e440,f15,negative).
example(e440,f16,negative).
example(e440,f17,negative).
example(e440,f18,positive).
example(e441,f1,positive).
example(e441,f2,negative).
example(e441,f3,negative).
example(e441,f4,negative).
example(e441,f5,negative).
example(e441,f6,positive).
example(e441,f7,positive).
example(e441,f8,negative).
example(e441,f9,positive).
example(e441,f10,negative).
example(e441,f11,negative).
example(e441,f12,positive).
example(e441,f13,negative).
example(e441,f14,negative).
example(e441,f15,negative).
example(e441,f16,positive).
example(e441,f17,negative).
example(e441,f18,positive).
example(e442,f1,positive).
example(e442,f2,negative).
example(e442,f3,negative).
example(e442,f4,negative).
example(e442,f5,negative).
example(e442,f6,positive).
example(e442,f7,positive).
example(e442,f8,negative).
example(e442,f9,positive).
example(e442,f10,negative).
example(e442,f11,negative).
example(e442,f12,negative).
example(e442,f13,negative).
example(e442,f14,positive).
example(e442,f15,negative).
example(e442,f16,positive).
example(e442,f17,negative).
example(e442,f18,positive).
example(e443,f1,positive).
example(e443,f2,negative).
example(e443,f3,negative).
example(e443,f4,negative).
example(e443,f5,negative).
example(e443,f6,positive).
example(e443,f7,positive).
example(e443,f8,negative).
example(e443,f9,negative).
example(e443,f10,negative).
example(e443,f11,negative).
example(e443,f12,positive).
example(e443,f13,negative).
example(e443,f14,positive).
example(e443,f15,positive).
example(e443,f16,negative).
example(e443,f17,negative).
example(e443,f18,positive).
example(e444,f1,positive).
example(e444,f2,negative).
example(e444,f3,negative).
example(e444,f4,negative).
example(e444,f5,negative).
example(e444,f6,positive).
example(e444,f7,positive).
example(e444,f8,negative).
example(e444,f9,negative).
example(e444,f10,negative).
example(e444,f11,negative).
example(e444,f12,positive).
example(e444,f13,negative).
example(e444,f14,negative).
example(e444,f15,negative).
example(e444,f16,negative).
example(e444,f17,negative).
example(e444,f18,positive).
example(e445,f1,positive).
example(e445,f2,negative).
example(e445,f3,negative).
example(e445,f4,negative).
example(e445,f5,negative).
example(e445,f6,positive).
example(e445,f7,positive).
example(e445,f8,negative).
example(e445,f9,negative).
example(e445,f10,negative).
example(e445,f11,positive).
example(e445,f12,negative).
example(e445,f13,negative).
example(e445,f14,positive).
example(e445,f15,negative).
example(e445,f16,positive).
example(e445,f17,negative).
example(e445,f18,positive).
example(e446,f1,positive).
example(e446,f2,negative).
example(e446,f3,negative).
example(e446,f4,negative).
example(e446,f5,negative).
example(e446,f6,positive).
example(e446,f7,negative).
example(e446,f8,negative).
example(e446,f9,negative).
example(e446,f10,positive).
example(e446,f11,negative).
example(e446,f12,positive).
example(e446,f13,negative).
example(e446,f14,positive).
example(e446,f15,positive).
example(e446,f16,negative).
example(e446,f17,positive).
example(e446,f18,negative).
example(e447,f1,positive).
example(e447,f2,negative).
example(e447,f3,negative).
example(e447,f4,negative).
example(e447,f5,negative).
example(e447,f6,positive).
example(e447,f7,negative).
example(e447,f8,negative).
example(e447,f9,negative).
example(e447,f10,positive).
example(e447,f11,negative).
example(e447,f12,positive).
example(e447,f13,positive).
example(e447,f14,negative).
example(e447,f15,positive).
example(e447,f16,negative).
example(e447,f17,negative).
example(e447,f18,positive).
example(e448,f1,positive).
example(e448,f2,negative).
example(e448,f3,negative).
example(e448,f4,negative).
example(e448,f5,negative).
example(e448,f6,positive).
example(e448,f7,negative).
example(e448,f8,negative).
example(e448,f9,negative).
example(e448,f10,positive).
example(e448,f11,positive).
example(e448,f12,negative).
example(e448,f13,negative).
example(e448,f14,positive).
example(e448,f15,negative).
example(e448,f16,positive).
example(e448,f17,positive).
example(e448,f18,negative).
example(e449,f1,positive).
example(e449,f2,negative).
example(e449,f3,negative).
example(e449,f4,negative).
example(e449,f5,negative).
example(e449,f6,positive).
example(e449,f7,negative).
example(e449,f8,negative).
example(e449,f9,negative).
example(e449,f10,positive).
example(e449,f11,positive).
example(e449,f12,negative).
example(e449,f13,negative).
example(e449,f14,positive).
example(e449,f15,positive).
example(e449,f16,negative).
example(e449,f17,negative).
example(e449,f18,positive).
example(e450,f1,positive).
example(e450,f2,negative).
example(e450,f3,negative).
example(e450,f4,negative).
example(e450,f5,negative).
example(e450,f6,positive).
example(e450,f7,negative).
example(e450,f8,negative).
example(e450,f9,negative).
example(e450,f10,positive).
example(e450,f11,positive).
example(e450,f12,negative).
example(e450,f13,negative).
example(e450,f14,positive).
example(e450,f15,negative).
example(e450,f16,negative).
example(e450,f17,negative).
example(e450,f18,negative).
example(e451,f1,positive).
example(e451,f2,negative).
example(e451,f3,negative).
example(e451,f4,negative).
example(e451,f5,negative).
example(e451,f6,positive).
example(e451,f7,negative).
example(e451,f8,negative).
example(e451,f9,negative).
example(e451,f10,positive).
example(e451,f11,negative).
example(e451,f12,negative).
example(e451,f13,negative).
example(e451,f14,positive).
example(e451,f15,positive).
example(e451,f16,negative).
example(e451,f17,negative).
example(e451,f18,negative).
example(e452,f1,positive).
example(e452,f2,negative).
example(e452,f3,negative).
example(e452,f4,negative).
example(e452,f5,negative).
example(e452,f6,positive).
example(e452,f7,negative).
example(e452,f8,negative).
example(e452,f9,negative).
example(e452,f10,positive).
example(e452,f11,negative).
example(e452,f12,negative).
example(e452,f13,negative).
example(e452,f14,positive).
example(e452,f15,negative).
example(e452,f16,negative).
example(e452,f17,positive).
example(e452,f18,negative).
example(e453,f1,positive).
example(e453,f2,negative).
example(e453,f3,negative).
example(e453,f4,negative).
example(e453,f5,negative).
example(e453,f6,positive).
example(e453,f7,negative).
example(e453,f8,negative).
example(e453,f9,positive).
example(e453,f10,negative).
example(e453,f11,negative).
example(e453,f12,positive).
example(e453,f13,negative).
example(e453,f14,positive).
example(e453,f15,positive).
example(e453,f16,negative).
example(e453,f17,negative).
example(e453,f18,positive).
example(e454,f1,positive).
example(e454,f2,negative).
example(e454,f3,negative).
example(e454,f4,negative).
example(e454,f5,negative).
example(e454,f6,positive).
example(e454,f7,negative).
example(e454,f8,negative).
example(e454,f9,positive).
example(e454,f10,negative).
example(e454,f11,negative).
example(e454,f12,positive).
example(e454,f13,positive).
example(e454,f14,negative).
example(e454,f15,negative).
example(e454,f16,positive).
example(e454,f17,negative).
example(e454,f18,positive).
example(e455,f1,positive).
example(e455,f2,negative).
example(e455,f3,negative).
example(e455,f4,negative).
example(e455,f5,negative).
example(e455,f6,positive).
example(e455,f7,negative).
example(e455,f8,negative).
example(e455,f9,positive).
example(e455,f10,negative).
example(e455,f11,negative).
example(e455,f12,positive).
example(e455,f13,negative).
example(e455,f14,negative).
example(e455,f15,negative).
example(e455,f16,negative).
example(e455,f17,negative).
example(e455,f18,positive).
example(e456,f1,positive).
example(e456,f2,negative).
example(e456,f3,negative).
example(e456,f4,negative).
example(e456,f5,negative).
example(e456,f6,positive).
example(e456,f7,negative).
example(e456,f8,negative).
example(e456,f9,positive).
example(e456,f10,negative).
example(e456,f11,positive).
example(e456,f12,negative).
example(e456,f13,negative).
example(e456,f14,positive).
example(e456,f15,negative).
example(e456,f16,positive).
example(e456,f17,negative).
example(e456,f18,positive).
example(e457,f1,positive).
example(e457,f2,negative).
example(e457,f3,negative).
example(e457,f4,negative).
example(e457,f5,negative).
example(e457,f6,positive).
example(e457,f7,negative).
example(e457,f8,negative).
example(e457,f9,negative).
example(e457,f10,negative).
example(e457,f11,negative).
example(e457,f12,positive).
example(e457,f13,positive).
example(e457,f14,negative).
example(e457,f15,negative).
example(e457,f16,negative).
example(e457,f17,negative).
example(e457,f18,positive).
example(e458,f1,positive).
example(e458,f2,negative).
example(e458,f3,negative).
example(e458,f4,negative).
example(e458,f5,negative).
example(e458,f6,positive).
example(e458,f7,negative).
example(e458,f8,negative).
example(e458,f9,negative).
example(e458,f10,negative).
example(e458,f11,negative).
example(e458,f12,positive).
example(e458,f13,negative).
example(e458,f14,negative).
example(e458,f15,positive).
example(e458,f16,negative).
example(e458,f17,negative).
example(e458,f18,positive).
example(e459,f1,positive).
example(e459,f2,negative).
example(e459,f3,negative).
example(e459,f4,negative).
example(e459,f5,positive).
example(e459,f6,negative).
example(e459,f7,negative).
example(e459,f8,positive).
example(e459,f9,negative).
example(e459,f10,positive).
example(e459,f11,negative).
example(e459,f12,positive).
example(e459,f13,negative).
example(e459,f14,positive).
example(e459,f15,positive).
example(e459,f16,negative).
example(e459,f17,negative).
example(e459,f18,negative).
example(e460,f1,positive).
example(e460,f2,negative).
example(e460,f3,negative).
example(e460,f4,negative).
example(e460,f5,positive).
example(e460,f6,negative).
example(e460,f7,negative).
example(e460,f8,positive).
example(e460,f9,negative).
example(e460,f10,positive).
example(e460,f11,negative).
example(e460,f12,positive).
example(e460,f13,negative).
example(e460,f14,positive).
example(e460,f15,negative).
example(e460,f16,negative).
example(e460,f17,positive).
example(e460,f18,negative).
example(e461,f1,positive).
example(e461,f2,negative).
example(e461,f3,negative).
example(e461,f4,negative).
example(e461,f5,positive).
example(e461,f6,negative).
example(e461,f7,negative).
example(e461,f8,positive).
example(e461,f9,negative).
example(e461,f10,positive).
example(e461,f11,negative).
example(e461,f12,positive).
example(e461,f13,positive).
example(e461,f14,negative).
example(e461,f15,negative).
example(e461,f16,positive).
example(e461,f17,negative).
example(e461,f18,negative).
example(e462,f1,positive).
example(e462,f2,negative).
example(e462,f3,negative).
example(e462,f4,negative).
example(e462,f5,positive).
example(e462,f6,negative).
example(e462,f7,negative).
example(e462,f8,positive).
example(e462,f9,negative).
example(e462,f10,positive).
example(e462,f11,negative).
example(e462,f12,positive).
example(e462,f13,positive).
example(e462,f14,negative).
example(e462,f15,negative).
example(e462,f16,negative).
example(e462,f17,negative).
example(e462,f18,positive).
example(e463,f1,positive).
example(e463,f2,negative).
example(e463,f3,negative).
example(e463,f4,negative).
example(e463,f5,positive).
example(e463,f6,negative).
example(e463,f7,negative).
example(e463,f8,positive).
example(e463,f9,negative).
example(e463,f10,positive).
example(e463,f11,negative).
example(e463,f12,positive).
example(e463,f13,negative).
example(e463,f14,negative).
example(e463,f15,negative).
example(e463,f16,positive).
example(e463,f17,positive).
example(e463,f18,negative).
example(e464,f1,positive).
example(e464,f2,negative).
example(e464,f3,negative).
example(e464,f4,negative).
example(e464,f5,positive).
example(e464,f6,negative).
example(e464,f7,negative).
example(e464,f8,positive).
example(e464,f9,negative).
example(e464,f10,positive).
example(e464,f11,negative).
example(e464,f12,positive).
example(e464,f13,negative).
example(e464,f14,negative).
example(e464,f15,positive).
example(e464,f16,negative).
example(e464,f17,negative).
example(e464,f18,positive).
example(e465,f1,positive).
example(e465,f2,negative).
example(e465,f3,negative).
example(e465,f4,negative).
example(e465,f5,positive).
example(e465,f6,negative).
example(e465,f7,negative).
example(e465,f8,positive).
example(e465,f9,negative).
example(e465,f10,positive).
example(e465,f11,negative).
example(e465,f12,positive).
example(e465,f13,negative).
example(e465,f14,negative).
example(e465,f15,negative).
example(e465,f16,negative).
example(e465,f17,negative).
example(e465,f18,negative).
example(e466,f1,positive).
example(e466,f2,negative).
example(e466,f3,negative).
example(e466,f4,negative).
example(e466,f5,positive).
example(e466,f6,negative).
example(e466,f7,negative).
example(e466,f8,positive).
example(e466,f9,positive).
example(e466,f10,negative).
example(e466,f11,negative).
example(e466,f12,negative).
example(e466,f13,negative).
example(e466,f14,positive).
example(e466,f15,negative).
example(e466,f16,positive).
example(e466,f17,negative).
example(e466,f18,positive).
example(e467,f1,positive).
example(e467,f2,negative).
example(e467,f3,negative).
example(e467,f4,negative).
example(e467,f5,positive).
example(e467,f6,negative).
example(e467,f7,negative).
example(e467,f8,positive).
example(e467,f9,negative).
example(e467,f10,negative).
example(e467,f11,positive).
example(e467,f12,negative).
example(e467,f13,negative).
example(e467,f14,positive).
example(e467,f15,negative).
example(e467,f16,positive).
example(e467,f17,negative).
example(e467,f18,positive).
example(e468,f1,positive).
example(e468,f2,negative).
example(e468,f3,negative).
example(e468,f4,negative).
example(e468,f5,positive).
example(e468,f6,negative).
example(e468,f7,positive).
example(e468,f8,negative).
example(e468,f9,negative).
example(e468,f10,positive).
example(e468,f11,negative).
example(e468,f12,negative).
example(e468,f13,negative).
example(e468,f14,positive).
example(e468,f15,negative).
example(e468,f16,positive).
example(e468,f17,negative).
example(e468,f18,positive).
example(e469,f1,positive).
example(e469,f2,negative).
example(e469,f3,negative).
example(e469,f4,negative).
example(e469,f5,positive).
example(e469,f6,negative).
example(e469,f7,positive).
example(e469,f8,negative).
example(e469,f9,negative).
example(e469,f10,negative).
example(e469,f11,negative).
example(e469,f12,positive).
example(e469,f13,negative).
example(e469,f14,positive).
example(e469,f15,negative).
example(e469,f16,positive).
example(e469,f17,negative).
example(e469,f18,positive).
example(e470,f1,positive).
example(e470,f2,negative).
example(e470,f3,negative).
example(e470,f4,negative).
example(e470,f5,positive).
example(e470,f6,negative).
example(e470,f7,negative).
example(e470,f8,negative).
example(e470,f9,negative).
example(e470,f10,positive).
example(e470,f11,positive).
example(e470,f12,negative).
example(e470,f13,negative).
example(e470,f14,positive).
example(e470,f15,negative).
example(e470,f16,positive).
example(e470,f17,negative).
example(e470,f18,positive).
example(e471,f1,positive).
example(e471,f2,negative).
example(e471,f3,negative).
example(e471,f4,negative).
example(e471,f5,positive).
example(e471,f6,negative).
example(e471,f7,negative).
example(e471,f8,negative).
example(e471,f9,positive).
example(e471,f10,negative).
example(e471,f11,negative).
example(e471,f12,positive).
example(e471,f13,negative).
example(e471,f14,positive).
example(e471,f15,negative).
example(e471,f16,positive).
example(e471,f17,negative).
example(e471,f18,positive).
example(e472,f1,positive).
example(e472,f2,negative).
example(e472,f3,negative).
example(e472,f4,negative).
example(e472,f5,positive).
example(e472,f6,negative).
example(e472,f7,negative).
example(e472,f8,negative).
example(e472,f9,negative).
example(e472,f10,negative).
example(e472,f11,negative).
example(e472,f12,negative).
example(e472,f13,negative).
example(e472,f14,positive).
example(e472,f15,negative).
example(e472,f16,positive).
example(e472,f17,negative).
example(e472,f18,positive).
example(e473,f1,positive).
example(e473,f2,negative).
example(e473,f3,negative).
example(e473,f4,negative).
example(e473,f5,negative).
example(e473,f6,negative).
example(e473,f7,negative).
example(e473,f8,positive).
example(e473,f9,negative).
example(e473,f10,positive).
example(e473,f11,negative).
example(e473,f12,positive).
example(e473,f13,negative).
example(e473,f14,positive).
example(e473,f15,positive).
example(e473,f16,negative).
example(e473,f17,positive).
example(e473,f18,negative).
example(e474,f1,positive).
example(e474,f2,negative).
example(e474,f3,negative).
example(e474,f4,negative).
example(e474,f5,negative).
example(e474,f6,negative).
example(e474,f7,negative).
example(e474,f8,positive).
example(e474,f9,negative).
example(e474,f10,positive).
example(e474,f11,negative).
example(e474,f12,positive).
example(e474,f13,positive).
example(e474,f14,negative).
example(e474,f15,negative).
example(e474,f16,positive).
example(e474,f17,positive).
example(e474,f18,negative).
example(e475,f1,positive).
example(e475,f2,negative).
example(e475,f3,negative).
example(e475,f4,negative).
example(e475,f5,negative).
example(e475,f6,negative).
example(e475,f7,negative).
example(e475,f8,positive).
example(e475,f9,negative).
example(e475,f10,positive).
example(e475,f11,negative).
example(e475,f12,positive).
example(e475,f13,positive).
example(e475,f14,negative).
example(e475,f15,positive).
example(e475,f16,negative).
example(e475,f17,negative).
example(e475,f18,positive).
example(e476,f1,positive).
example(e476,f2,negative).
example(e476,f3,negative).
example(e476,f4,negative).
example(e476,f5,negative).
example(e476,f6,negative).
example(e476,f7,negative).
example(e476,f8,positive).
example(e476,f9,negative).
example(e476,f10,positive).
example(e476,f11,negative).
example(e476,f12,positive).
example(e476,f13,positive).
example(e476,f14,negative).
example(e476,f15,negative).
example(e476,f16,negative).
example(e476,f17,negative).
example(e476,f18,negative).
example(e477,f1,positive).
example(e477,f2,negative).
example(e477,f3,negative).
example(e477,f4,negative).
example(e477,f5,negative).
example(e477,f6,negative).
example(e477,f7,negative).
example(e477,f8,positive).
example(e477,f9,negative).
example(e477,f10,positive).
example(e477,f11,negative).
example(e477,f12,positive).
example(e477,f13,negative).
example(e477,f14,negative).
example(e477,f15,positive).
example(e477,f16,negative).
example(e477,f17,negative).
example(e477,f18,negative).
example(e478,f1,positive).
example(e478,f2,negative).
example(e478,f3,negative).
example(e478,f4,negative).
example(e478,f5,negative).
example(e478,f6,negative).
example(e478,f7,negative).
example(e478,f8,positive).
example(e478,f9,negative).
example(e478,f10,positive).
example(e478,f11,negative).
example(e478,f12,positive).
example(e478,f13,negative).
example(e478,f14,negative).
example(e478,f15,negative).
example(e478,f16,negative).
example(e478,f17,positive).
example(e478,f18,negative).
example(e479,f1,positive).
example(e479,f2,negative).
example(e479,f3,negative).
example(e479,f4,negative).
example(e479,f5,negative).
example(e479,f6,negative).
example(e479,f7,negative).
example(e479,f8,positive).
example(e479,f9,positive).
example(e479,f10,negative).
example(e479,f11,positive).
example(e479,f12,negative).
example(e479,f13,negative).
example(e479,f14,positive).
example(e479,f15,negative).
example(e479,f16,positive).
example(e479,f17,negative).
example(e479,f18,positive).
example(e480,f1,positive).
example(e480,f2,negative).
example(e480,f3,negative).
example(e480,f4,negative).
example(e480,f5,negative).
example(e480,f6,negative).
example(e480,f7,positive).
example(e480,f8,negative).
example(e480,f9,negative).
example(e480,f10,positive).
example(e480,f11,positive).
example(e480,f12,negative).
example(e480,f13,negative).
example(e480,f14,positive).
example(e480,f15,negative).
example(e480,f16,positive).
example(e480,f17,negative).
example(e480,f18,positive).
example(e481,f1,positive).
example(e481,f2,negative).
example(e481,f3,negative).
example(e481,f4,negative).
example(e481,f5,negative).
example(e481,f6,negative).
example(e481,f7,positive).
example(e481,f8,negative).
example(e481,f9,positive).
example(e481,f10,negative).
example(e481,f11,negative).
example(e481,f12,positive).
example(e481,f13,negative).
example(e481,f14,positive).
example(e481,f15,negative).
example(e481,f16,positive).
example(e481,f17,negative).
example(e481,f18,positive).
example(e482,f1,positive).
example(e482,f2,negative).
example(e482,f3,negative).
example(e482,f4,negative).
example(e482,f5,negative).
example(e482,f6,negative).
example(e482,f7,positive).
example(e482,f8,negative).
example(e482,f9,negative).
example(e482,f10,negative).
example(e482,f11,negative).
example(e482,f12,negative).
example(e482,f13,negative).
example(e482,f14,positive).
example(e482,f15,negative).
example(e482,f16,positive).
example(e482,f17,negative).
example(e482,f18,positive).
example(e483,f1,positive).
example(e483,f2,negative).
example(e483,f3,negative).
example(e483,f4,negative).
example(e483,f5,negative).
example(e483,f6,negative).
example(e483,f7,negative).
example(e483,f8,negative).
example(e483,f9,positive).
example(e483,f10,negative).
example(e483,f11,negative).
example(e483,f12,negative).
example(e483,f13,negative).
example(e483,f14,positive).
example(e483,f15,negative).
example(e483,f16,positive).
example(e483,f17,negative).
example(e483,f18,positive).
example(e484,f1,positive).
example(e484,f2,negative).
example(e484,f3,negative).
example(e484,f4,negative).
example(e484,f5,negative).
example(e484,f6,negative).
example(e484,f7,negative).
example(e484,f8,negative).
example(e484,f9,negative).
example(e484,f10,negative).
example(e484,f11,positive).
example(e484,f12,negative).
example(e484,f13,negative).
example(e484,f14,positive).
example(e484,f15,negative).
example(e484,f16,positive).
example(e484,f17,negative).
example(e484,f18,positive).
example(e485,f1,negative).
example(e485,f2,negative).
example(e485,f3,negative).
example(e485,f4,positive).
example(e485,f5,negative).
example(e485,f6,positive).
example(e485,f7,positive).
example(e485,f8,negative).
example(e485,f9,negative).
example(e485,f10,positive).
example(e485,f11,positive).
example(e485,f12,negative).
example(e485,f13,negative).
example(e485,f14,positive).
example(e485,f15,positive).
example(e485,f16,negative).
example(e485,f17,negative).
example(e485,f18,negative).
example(e486,f1,negative).
example(e486,f2,negative).
example(e486,f3,negative).
example(e486,f4,positive).
example(e486,f5,negative).
example(e486,f6,positive).
example(e486,f7,positive).
example(e486,f8,negative).
example(e486,f9,negative).
example(e486,f10,positive).
example(e486,f11,positive).
example(e486,f12,negative).
example(e486,f13,negative).
example(e486,f14,positive).
example(e486,f15,negative).
example(e486,f16,negative).
example(e486,f17,positive).
example(e486,f18,negative).
example(e487,f1,negative).
example(e487,f2,negative).
example(e487,f3,negative).
example(e487,f4,positive).
example(e487,f5,negative).
example(e487,f6,positive).
example(e487,f7,positive).
example(e487,f8,negative).
example(e487,f9,negative).
example(e487,f10,positive).
example(e487,f11,positive).
example(e487,f12,negative).
example(e487,f13,positive).
example(e487,f14,negative).
example(e487,f15,negative).
example(e487,f16,positive).
example(e487,f17,negative).
example(e487,f18,negative).
example(e488,f1,negative).
example(e488,f2,negative).
example(e488,f3,negative).
example(e488,f4,positive).
example(e488,f5,negative).
example(e488,f6,positive).
example(e488,f7,positive).
example(e488,f8,negative).
example(e488,f9,negative).
example(e488,f10,positive).
example(e488,f11,positive).
example(e488,f12,negative).
example(e488,f13,negative).
example(e488,f14,negative).
example(e488,f15,negative).
example(e488,f16,positive).
example(e488,f17,positive).
example(e488,f18,negative).
example(e489,f1,negative).
example(e489,f2,negative).
example(e489,f3,negative).
example(e489,f4,positive).
example(e489,f5,negative).
example(e489,f6,positive).
example(e489,f7,positive).
example(e489,f8,negative).
example(e489,f9,negative).
example(e489,f10,positive).
example(e489,f11,negative).
example(e489,f12,negative).
example(e489,f13,negative).
example(e489,f14,positive).
example(e489,f15,positive).
example(e489,f16,negative).
example(e489,f17,positive).
example(e489,f18,negative).
example(e490,f1,negative).
example(e490,f2,negative).
example(e490,f3,negative).
example(e490,f4,positive).
example(e490,f5,negative).
example(e490,f6,positive).
example(e490,f7,positive).
example(e490,f8,negative).
example(e490,f9,negative).
example(e490,f10,positive).
example(e490,f11,negative).
example(e490,f12,negative).
example(e490,f13,positive).
example(e490,f14,negative).
example(e490,f15,negative).
example(e490,f16,positive).
example(e490,f17,positive).
example(e490,f18,negative).
example(e491,f1,negative).
example(e491,f2,negative).
example(e491,f3,negative).
example(e491,f4,positive).
example(e491,f5,negative).
example(e491,f6,positive).
example(e491,f7,positive).
example(e491,f8,negative).
example(e491,f9,positive).
example(e491,f10,negative).
example(e491,f11,negative).
example(e491,f12,positive).
example(e491,f13,positive).
example(e491,f14,negative).
example(e491,f15,negative).
example(e491,f16,negative).
example(e491,f17,negative).
example(e491,f18,positive).
example(e492,f1,negative).
example(e492,f2,negative).
example(e492,f3,negative).
example(e492,f4,positive).
example(e492,f5,negative).
example(e492,f6,positive).
example(e492,f7,positive).
example(e492,f8,negative).
example(e492,f9,positive).
example(e492,f10,negative).
example(e492,f11,negative).
example(e492,f12,positive).
example(e492,f13,negative).
example(e492,f14,negative).
example(e492,f15,positive).
example(e492,f16,negative).
example(e492,f17,negative).
example(e492,f18,positive).
example(e493,f1,negative).
example(e493,f2,negative).
example(e493,f3,negative).
example(e493,f4,positive).
example(e493,f5,negative).
example(e493,f6,positive).
example(e493,f7,positive).
example(e493,f8,negative).
example(e493,f9,negative).
example(e493,f10,negative).
example(e493,f11,negative).
example(e493,f12,positive).
example(e493,f13,positive).
example(e493,f14,negative).
example(e493,f15,positive).
example(e493,f16,negative).
example(e493,f17,negative).
example(e493,f18,positive).
example(e494,f1,negative).
example(e494,f2,negative).
example(e494,f3,negative).
example(e494,f4,positive).
example(e494,f5,negative).
example(e494,f6,positive).
example(e494,f7,negative).
example(e494,f8,negative).
example(e494,f9,negative).
example(e494,f10,positive).
example(e494,f11,positive).
example(e494,f12,negative).
example(e494,f13,negative).
example(e494,f14,positive).
example(e494,f15,positive).
example(e494,f16,negative).
example(e494,f17,positive).
example(e494,f18,negative).
example(e495,f1,negative).
example(e495,f2,negative).
example(e495,f3,negative).
example(e495,f4,positive).
example(e495,f5,negative).
example(e495,f6,positive).
example(e495,f7,negative).
example(e495,f8,negative).
example(e495,f9,negative).
example(e495,f10,positive).
example(e495,f11,positive).
example(e495,f12,negative).
example(e495,f13,positive).
example(e495,f14,negative).
example(e495,f15,negative).
example(e495,f16,positive).
example(e495,f17,positive).
example(e495,f18,negative).
example(e496,f1,negative).
example(e496,f2,negative).
example(e496,f3,negative).
example(e496,f4,positive).
example(e496,f5,negative).
example(e496,f6,positive).
example(e496,f7,negative).
example(e496,f8,negative).
example(e496,f9,positive).
example(e496,f10,negative).
example(e496,f11,negative).
example(e496,f12,positive).
example(e496,f13,positive).
example(e496,f14,negative).
example(e496,f15,positive).
example(e496,f16,negative).
example(e496,f17,negative).
example(e496,f18,positive).
example(e497,f1,negative).
example(e497,f2,negative).
example(e497,f3,negative).
example(e497,f4,positive).
example(e497,f5,positive).
example(e497,f6,negative).
example(e497,f7,negative).
example(e497,f8,positive).
example(e497,f9,negative).
example(e497,f10,positive).
example(e497,f11,negative).
example(e497,f12,positive).
example(e497,f13,positive).
example(e497,f14,negative).
example(e497,f15,positive).
example(e497,f16,negative).
example(e497,f17,negative).
example(e497,f18,negative).
example(e498,f1,negative).
example(e498,f2,negative).
example(e498,f3,negative).
example(e498,f4,positive).
example(e498,f5,positive).
example(e498,f6,negative).
example(e498,f7,negative).
example(e498,f8,positive).
example(e498,f9,negative).
example(e498,f10,positive).
example(e498,f11,negative).
example(e498,f12,positive).
example(e498,f13,positive).
example(e498,f14,negative).
example(e498,f15,negative).
example(e498,f16,negative).
example(e498,f17,positive).
example(e498,f18,negative).
example(e499,f1,negative).
example(e499,f2,negative).
example(e499,f3,negative).
example(e499,f4,positive).
example(e499,f5,positive).
example(e499,f6,negative).
example(e499,f7,negative).
example(e499,f8,positive).
example(e499,f9,negative).
example(e499,f10,positive).
example(e499,f11,negative).
example(e499,f12,positive).
example(e499,f13,negative).
example(e499,f14,negative).
example(e499,f15,positive).
example(e499,f16,negative).
example(e499,f17,positive).
example(e499,f18,negative).
example(e500,f1,negative).
example(e500,f2,negative).
example(e500,f3,negative).
example(e500,f4,positive).
example(e500,f5,positive).
example(e500,f6,negative).
example(e500,f7,negative).
example(e500,f8,positive).
example(e500,f9,negative).
example(e500,f10,positive).
example(e500,f11,positive).
example(e500,f12,negative).
example(e500,f13,positive).
example(e500,f14,negative).
example(e500,f15,negative).
example(e500,f16,positive).
example(e500,f17,negative).
example(e500,f18,negative).
example(e501,f1,negative).
example(e501,f2,negative).
example(e501,f3,negative).
example(e501,f4,positive).
example(e501,f5,positive).
example(e501,f6,negative).
example(e501,f7,negative).
example(e501,f8,positive).
example(e501,f9,negative).
example(e501,f10,positive).
example(e501,f11,negative).
example(e501,f12,negative).
example(e501,f13,positive).
example(e501,f14,negative).
example(e501,f15,negative).
example(e501,f16,positive).
example(e501,f17,positive).
example(e501,f18,negative).
example(e502,f1,negative).
example(e502,f2,negative).
example(e502,f3,negative).
example(e502,f4,positive).
example(e502,f5,positive).
example(e502,f6,negative).
example(e502,f7,positive).
example(e502,f8,negative).
example(e502,f9,negative).
example(e502,f10,positive).
example(e502,f11,negative).
example(e502,f12,positive).
example(e502,f13,positive).
example(e502,f14,negative).
example(e502,f15,negative).
example(e502,f16,positive).
example(e502,f17,negative).
example(e502,f18,negative).
example(e503,f1,negative).
example(e503,f2,negative).
example(e503,f3,negative).
example(e503,f4,positive).
example(e503,f5,positive).
example(e503,f6,negative).
example(e503,f7,positive).
example(e503,f8,negative).
example(e503,f9,negative).
example(e503,f10,positive).
example(e503,f11,negative).
example(e503,f12,positive).
example(e503,f13,negative).
example(e503,f14,negative).
example(e503,f15,negative).
example(e503,f16,positive).
example(e503,f17,positive).
example(e503,f18,negative).
example(e504,f1,negative).
example(e504,f2,negative).
example(e504,f3,negative).
example(e504,f4,positive).
example(e504,f5,positive).
example(e504,f6,negative).
example(e504,f7,positive).
example(e504,f8,negative).
example(e504,f9,negative).
example(e504,f10,positive).
example(e504,f11,positive).
example(e504,f12,negative).
example(e504,f13,negative).
example(e504,f14,positive).
example(e504,f15,negative).
example(e504,f16,positive).
example(e504,f17,negative).
example(e504,f18,negative).
example(e505,f1,negative).
example(e505,f2,negative).
example(e505,f3,negative).
example(e505,f4,positive).
example(e505,f5,positive).
example(e505,f6,negative).
example(e505,f7,positive).
example(e505,f8,negative).
example(e505,f9,negative).
example(e505,f10,positive).
example(e505,f11,positive).
example(e505,f12,negative).
example(e505,f13,negative).
example(e505,f14,negative).
example(e505,f15,negative).
example(e505,f16,positive).
example(e505,f17,negative).
example(e505,f18,positive).
example(e506,f1,negative).
example(e506,f2,negative).
example(e506,f3,negative).
example(e506,f4,positive).
example(e506,f5,positive).
example(e506,f6,negative).
example(e506,f7,positive).
example(e506,f8,negative).
example(e506,f9,negative).
example(e506,f10,positive).
example(e506,f11,negative).
example(e506,f12,negative).
example(e506,f13,negative).
example(e506,f14,positive).
example(e506,f15,negative).
example(e506,f16,positive).
example(e506,f17,positive).
example(e506,f18,negative).
example(e507,f1,negative).
example(e507,f2,negative).
example(e507,f3,negative).
example(e507,f4,positive).
example(e507,f5,positive).
example(e507,f6,negative).
example(e507,f7,positive).
example(e507,f8,negative).
example(e507,f9,negative).
example(e507,f10,positive).
example(e507,f11,negative).
example(e507,f12,negative).
example(e507,f13,positive).
example(e507,f14,negative).
example(e507,f15,negative).
example(e507,f16,positive).
example(e507,f17,negative).
example(e507,f18,positive).
example(e508,f1,negative).
example(e508,f2,negative).
example(e508,f3,negative).
example(e508,f4,positive).
example(e508,f5,positive).
example(e508,f6,negative).
example(e508,f7,positive).
example(e508,f8,negative).
example(e508,f9,negative).
example(e508,f10,positive).
example(e508,f11,negative).
example(e508,f12,negative).
example(e508,f13,negative).
example(e508,f14,negative).
example(e508,f15,negative).
example(e508,f16,positive).
example(e508,f17,negative).
example(e508,f18,negative).
example(e509,f1,negative).
example(e509,f2,negative).
example(e509,f3,negative).
example(e509,f4,positive).
example(e509,f5,positive).
example(e509,f6,negative).
example(e509,f7,positive).
example(e509,f8,negative).
example(e509,f9,positive).
example(e509,f10,negative).
example(e509,f11,negative).
example(e509,f12,negative).
example(e509,f13,negative).
example(e509,f14,positive).
example(e509,f15,negative).
example(e509,f16,positive).
example(e509,f17,negative).
example(e509,f18,positive).
example(e510,f1,negative).
example(e510,f2,negative).
example(e510,f3,negative).
example(e510,f4,positive).
example(e510,f5,positive).
example(e510,f6,negative).
example(e510,f7,positive).
example(e510,f8,negative).
example(e510,f9,negative).
example(e510,f10,negative).
example(e510,f11,positive).
example(e510,f12,negative).
example(e510,f13,negative).
example(e510,f14,positive).
example(e510,f15,negative).
example(e510,f16,positive).
example(e510,f17,negative).
example(e510,f18,positive).
example(e511,f1,negative).
example(e511,f2,negative).
example(e511,f3,negative).
example(e511,f4,positive).
example(e511,f5,positive).
example(e511,f6,negative).
example(e511,f7,negative).
example(e511,f8,negative).
example(e511,f9,negative).
example(e511,f10,positive).
example(e511,f11,negative).
example(e511,f12,positive).
example(e511,f13,positive).
example(e511,f14,negative).
example(e511,f15,negative).
example(e511,f16,positive).
example(e511,f17,positive).
example(e511,f18,negative).
example(e512,f1,negative).
example(e512,f2,negative).
example(e512,f3,negative).
example(e512,f4,positive).
example(e512,f5,positive).
example(e512,f6,negative).
example(e512,f7,negative).
example(e512,f8,negative).
example(e512,f9,negative).
example(e512,f10,positive).
example(e512,f11,positive).
example(e512,f12,negative).
example(e512,f13,positive).
example(e512,f14,negative).
example(e512,f15,negative).
example(e512,f16,positive).
example(e512,f17,negative).
example(e512,f18,positive).
example(e513,f1,negative).
example(e513,f2,negative).
example(e513,f3,negative).
example(e513,f4,positive).
example(e513,f5,positive).
example(e513,f6,negative).
example(e513,f7,negative).
example(e513,f8,negative).
example(e513,f9,negative).
example(e513,f10,positive).
example(e513,f11,positive).
example(e513,f12,negative).
example(e513,f13,negative).
example(e513,f14,negative).
example(e513,f15,negative).
example(e513,f16,positive).
example(e513,f17,negative).
example(e513,f18,negative).
example(e514,f1,negative).
example(e514,f2,negative).
example(e514,f3,negative).
example(e514,f4,positive).
example(e514,f5,positive).
example(e514,f6,negative).
example(e514,f7,negative).
example(e514,f8,negative).
example(e514,f9,negative).
example(e514,f10,positive).
example(e514,f11,negative).
example(e514,f12,negative).
example(e514,f13,positive).
example(e514,f14,negative).
example(e514,f15,negative).
example(e514,f16,positive).
example(e514,f17,negative).
example(e514,f18,negative).
example(e515,f1,negative).
example(e515,f2,negative).
example(e515,f3,negative).
example(e515,f4,positive).
example(e515,f5,positive).
example(e515,f6,negative).
example(e515,f7,negative).
example(e515,f8,negative).
example(e515,f9,negative).
example(e515,f10,positive).
example(e515,f11,negative).
example(e515,f12,negative).
example(e515,f13,negative).
example(e515,f14,negative).
example(e515,f15,negative).
example(e515,f16,positive).
example(e515,f17,positive).
example(e515,f18,negative).
example(e516,f1,negative).
example(e516,f2,negative).
example(e516,f3,negative).
example(e516,f4,positive).
example(e516,f5,positive).
example(e516,f6,negative).
example(e516,f7,negative).
example(e516,f8,negative).
example(e516,f9,positive).
example(e516,f10,negative).
example(e516,f11,positive).
example(e516,f12,negative).
example(e516,f13,negative).
example(e516,f14,positive).
example(e516,f15,negative).
example(e516,f16,positive).
example(e516,f17,negative).
example(e516,f18,positive).
example(e517,f1,negative).
example(e517,f2,negative).
example(e517,f3,negative).
example(e517,f4,positive).
example(e517,f5,negative).
example(e517,f6,negative).
example(e517,f7,negative).
example(e517,f8,positive).
example(e517,f9,negative).
example(e517,f10,positive).
example(e517,f11,positive).
example(e517,f12,negative).
example(e517,f13,positive).
example(e517,f14,negative).
example(e517,f15,negative).
example(e517,f16,positive).
example(e517,f17,positive).
example(e517,f18,negative).
example(e518,f1,negative).
example(e518,f2,negative).
example(e518,f3,negative).
example(e518,f4,positive).
example(e518,f5,negative).
example(e518,f6,negative).
example(e518,f7,positive).
example(e518,f8,negative).
example(e518,f9,negative).
example(e518,f10,positive).
example(e518,f11,negative).
example(e518,f12,positive).
example(e518,f13,positive).
example(e518,f14,negative).
example(e518,f15,negative).
example(e518,f16,positive).
example(e518,f17,positive).
example(e518,f18,negative).
example(e519,f1,negative).
example(e519,f2,negative).
example(e519,f3,negative).
example(e519,f4,positive).
example(e519,f5,negative).
example(e519,f6,negative).
example(e519,f7,positive).
example(e519,f8,negative).
example(e519,f9,negative).
example(e519,f10,positive).
example(e519,f11,positive).
example(e519,f12,negative).
example(e519,f13,negative).
example(e519,f14,positive).
example(e519,f15,negative).
example(e519,f16,positive).
example(e519,f17,positive).
example(e519,f18,negative).
example(e520,f1,negative).
example(e520,f2,negative).
example(e520,f3,negative).
example(e520,f4,positive).
example(e520,f5,negative).
example(e520,f6,negative).
example(e520,f7,positive).
example(e520,f8,negative).
example(e520,f9,negative).
example(e520,f10,positive).
example(e520,f11,positive).
example(e520,f12,negative).
example(e520,f13,positive).
example(e520,f14,negative).
example(e520,f15,negative).
example(e520,f16,positive).
example(e520,f17,negative).
example(e520,f18,positive).
example(e521,f1,negative).
example(e521,f2,negative).
example(e521,f3,negative).
example(e521,f4,positive).
example(e521,f5,negative).
example(e521,f6,negative).
example(e521,f7,positive).
example(e521,f8,negative).
example(e521,f9,negative).
example(e521,f10,positive).
example(e521,f11,positive).
example(e521,f12,negative).
example(e521,f13,negative).
example(e521,f14,negative).
example(e521,f15,negative).
example(e521,f16,positive).
example(e521,f17,negative).
example(e521,f18,negative).
example(e522,f1,negative).
example(e522,f2,negative).
example(e522,f3,negative).
example(e522,f4,positive).
example(e522,f5,negative).
example(e522,f6,negative).
example(e522,f7,positive).
example(e522,f8,negative).
example(e522,f9,negative).
example(e522,f10,positive).
example(e522,f11,negative).
example(e522,f12,negative).
example(e522,f13,positive).
example(e522,f14,negative).
example(e522,f15,negative).
example(e522,f16,positive).
example(e522,f17,negative).
example(e522,f18,negative).
example(e523,f1,negative).
example(e523,f2,negative).
example(e523,f3,negative).
example(e523,f4,positive).
example(e523,f5,negative).
example(e523,f6,negative).
example(e523,f7,positive).
example(e523,f8,negative).
example(e523,f9,negative).
example(e523,f10,positive).
example(e523,f11,negative).
example(e523,f12,negative).
example(e523,f13,negative).
example(e523,f14,negative).
example(e523,f15,negative).
example(e523,f16,positive).
example(e523,f17,positive).
example(e523,f18,negative).
example(e524,f1,negative).
example(e524,f2,negative).
example(e524,f3,negative).
example(e524,f4,positive).
example(e524,f5,negative).
example(e524,f6,negative).
example(e524,f7,negative).
example(e524,f8,negative).
example(e524,f9,negative).
example(e524,f10,positive).
example(e524,f11,positive).
example(e524,f12,negative).
example(e524,f13,positive).
example(e524,f14,negative).
example(e524,f15,negative).
example(e524,f16,positive).
example(e524,f17,negative).
example(e524,f18,negative).
example(e525,f1,negative).
example(e525,f2,negative).
example(e525,f3,negative).
example(e525,f4,positive).
example(e525,f5,negative).
example(e525,f6,negative).
example(e525,f7,negative).
example(e525,f8,negative).
example(e525,f9,negative).
example(e525,f10,positive).
example(e525,f11,positive).
example(e525,f12,negative).
example(e525,f13,negative).
example(e525,f14,negative).
example(e525,f15,negative).
example(e525,f16,positive).
example(e525,f17,positive).
example(e525,f18,negative).
example(e526,f1,negative).
example(e526,f2,negative).
example(e526,f3,negative).
example(e526,f4,positive).
example(e526,f5,negative).
example(e526,f6,negative).
example(e526,f7,negative).
example(e526,f8,negative).
example(e526,f9,negative).
example(e526,f10,positive).
example(e526,f11,negative).
example(e526,f12,negative).
example(e526,f13,positive).
example(e526,f14,negative).
example(e526,f15,negative).
example(e526,f16,positive).
example(e526,f17,positive).
example(e526,f18,negative).
example(e527,f1,negative).
example(e527,f2,negative).
example(e527,f3,positive).
example(e527,f4,negative).
example(e527,f5,negative).
example(e527,f6,positive).
example(e527,f7,negative).
example(e527,f8,positive).
example(e527,f9,negative).
example(e527,f10,positive).
example(e527,f11,negative).
example(e527,f12,positive).
example(e527,f13,positive).
example(e527,f14,negative).
example(e527,f15,positive).
example(e527,f16,negative).
example(e527,f17,negative).
example(e527,f18,negative).
example(e528,f1,negative).
example(e528,f2,negative).
example(e528,f3,positive).
example(e528,f4,negative).
example(e528,f5,negative).
example(e528,f6,positive).
example(e528,f7,negative).
example(e528,f8,positive).
example(e528,f9,negative).
example(e528,f10,positive).
example(e528,f11,negative).
example(e528,f12,positive).
example(e528,f13,positive).
example(e528,f14,negative).
example(e528,f15,negative).
example(e528,f16,negative).
example(e528,f17,positive).
example(e528,f18,negative).
example(e529,f1,negative).
example(e529,f2,negative).
example(e529,f3,positive).
example(e529,f4,negative).
example(e529,f5,negative).
example(e529,f6,positive).
example(e529,f7,negative).
example(e529,f8,positive).
example(e529,f9,negative).
example(e529,f10,positive).
example(e529,f11,negative).
example(e529,f12,positive).
example(e529,f13,negative).
example(e529,f14,negative).
example(e529,f15,positive).
example(e529,f16,negative).
example(e529,f17,positive).
example(e529,f18,negative).
example(e530,f1,negative).
example(e530,f2,negative).
example(e530,f3,positive).
example(e530,f4,negative).
example(e530,f5,negative).
example(e530,f6,positive).
example(e530,f7,negative).
example(e530,f8,positive).
example(e530,f9,negative).
example(e530,f10,positive).
example(e530,f11,positive).
example(e530,f12,negative).
example(e530,f13,negative).
example(e530,f14,positive).
example(e530,f15,positive).
example(e530,f16,negative).
example(e530,f17,negative).
example(e530,f18,negative).
example(e531,f1,negative).
example(e531,f2,negative).
example(e531,f3,positive).
example(e531,f4,negative).
example(e531,f5,negative).
example(e531,f6,positive).
example(e531,f7,negative).
example(e531,f8,positive).
example(e531,f9,negative).
example(e531,f10,positive).
example(e531,f11,positive).
example(e531,f12,negative).
example(e531,f13,negative).
example(e531,f14,positive).
example(e531,f15,negative).
example(e531,f16,negative).
example(e531,f17,positive).
example(e531,f18,negative).
example(e532,f1,negative).
example(e532,f2,negative).
example(e532,f3,positive).
example(e532,f4,negative).
example(e532,f5,negative).
example(e532,f6,positive).
example(e532,f7,negative).
example(e532,f8,positive).
example(e532,f9,negative).
example(e532,f10,positive).
example(e532,f11,negative).
example(e532,f12,negative).
example(e532,f13,negative).
example(e532,f14,positive).
example(e532,f15,positive).
example(e532,f16,negative).
example(e532,f17,positive).
example(e532,f18,negative).
example(e533,f1,negative).
example(e533,f2,negative).
example(e533,f3,positive).
example(e533,f4,negative).
example(e533,f5,negative).
example(e533,f6,positive).
example(e533,f7,negative).
example(e533,f8,positive).
example(e533,f9,positive).
example(e533,f10,negative).
example(e533,f11,negative).
example(e533,f12,positive).
example(e533,f13,positive).
example(e533,f14,negative).
example(e533,f15,negative).
example(e533,f16,negative).
example(e533,f17,negative).
example(e533,f18,positive).
example(e534,f1,negative).
example(e534,f2,negative).
example(e534,f3,positive).
example(e534,f4,negative).
example(e534,f5,negative).
example(e534,f6,positive).
example(e534,f7,negative).
example(e534,f8,positive).
example(e534,f9,negative).
example(e534,f10,negative).
example(e534,f11,negative).
example(e534,f12,positive).
example(e534,f13,positive).
example(e534,f14,negative).
example(e534,f15,positive).
example(e534,f16,negative).
example(e534,f17,negative).
example(e534,f18,positive).
example(e535,f1,negative).
example(e535,f2,negative).
example(e535,f3,positive).
example(e535,f4,negative).
example(e535,f5,negative).
example(e535,f6,positive).
example(e535,f7,positive).
example(e535,f8,negative).
example(e535,f9,negative).
example(e535,f10,positive).
example(e535,f11,negative).
example(e535,f12,positive).
example(e535,f13,negative).
example(e535,f14,positive).
example(e535,f15,positive).
example(e535,f16,negative).
example(e535,f17,negative).
example(e535,f18,negative).
example(e536,f1,negative).
example(e536,f2,negative).
example(e536,f3,positive).
example(e536,f4,negative).
example(e536,f5,negative).
example(e536,f6,positive).
example(e536,f7,positive).
example(e536,f8,negative).
example(e536,f9,negative).
example(e536,f10,positive).
example(e536,f11,negative).
example(e536,f12,positive).
example(e536,f13,negative).
example(e536,f14,positive).
example(e536,f15,negative).
example(e536,f16,negative).
example(e536,f17,positive).
example(e536,f18,negative).
example(e537,f1,negative).
example(e537,f2,negative).
example(e537,f3,positive).
example(e537,f4,negative).
example(e537,f5,negative).
example(e537,f6,positive).
example(e537,f7,positive).
example(e537,f8,negative).
example(e537,f9,negative).
example(e537,f10,positive).
example(e537,f11,negative).
example(e537,f12,positive).
example(e537,f13,positive).
example(e537,f14,negative).
example(e537,f15,negative).
example(e537,f16,negative).
example(e537,f17,negative).
example(e537,f18,positive).
example(e538,f1,negative).
example(e538,f2,negative).
example(e538,f3,positive).
example(e538,f4,negative).
example(e538,f5,negative).
example(e538,f6,positive).
example(e538,f7,positive).
example(e538,f8,negative).
example(e538,f9,negative).
example(e538,f10,positive).
example(e538,f11,negative).
example(e538,f12,positive).
example(e538,f13,negative).
example(e538,f14,negative).
example(e538,f15,positive).
example(e538,f16,negative).
example(e538,f17,negative).
example(e538,f18,positive).
example(e539,f1,negative).
example(e539,f2,negative).
example(e539,f3,positive).
example(e539,f4,negative).
example(e539,f5,negative).
example(e539,f6,positive).
example(e539,f7,positive).
example(e539,f8,negative).
example(e539,f9,negative).
example(e539,f10,positive).
example(e539,f11,positive).
example(e539,f12,negative).
example(e539,f13,negative).
example(e539,f14,positive).
example(e539,f15,negative).
example(e539,f16,positive).
example(e539,f17,negative).
example(e539,f18,negative).
example(e540,f1,negative).
example(e540,f2,negative).
example(e540,f3,positive).
example(e540,f4,negative).
example(e540,f5,negative).
example(e540,f6,positive).
example(e540,f7,positive).
example(e540,f8,negative).
example(e540,f9,negative).
example(e540,f10,positive).
example(e540,f11,positive).
example(e540,f12,negative).
example(e540,f13,negative).
example(e540,f14,positive).
example(e540,f15,negative).
example(e540,f16,negative).
example(e540,f17,negative).
example(e540,f18,positive).
example(e541,f1,negative).
example(e541,f2,negative).
example(e541,f3,positive).
example(e541,f4,negative).
example(e541,f5,negative).
example(e541,f6,positive).
example(e541,f7,positive).
example(e541,f8,negative).
example(e541,f9,negative).
example(e541,f10,positive).
example(e541,f11,negative).
example(e541,f12,negative).
example(e541,f13,negative).
example(e541,f14,positive).
example(e541,f15,negative).
example(e541,f16,positive).
example(e541,f17,positive).
example(e541,f18,negative).
example(e542,f1,negative).
example(e542,f2,negative).
example(e542,f3,positive).
example(e542,f4,negative).
example(e542,f5,negative).
example(e542,f6,positive).
example(e542,f7,positive).
example(e542,f8,negative).
example(e542,f9,negative).
example(e542,f10,positive).
example(e542,f11,negative).
example(e542,f12,negative).
example(e542,f13,negative).
example(e542,f14,positive).
example(e542,f15,positive).
example(e542,f16,negative).
example(e542,f17,negative).
example(e542,f18,positive).
example(e543,f1,negative).
example(e543,f2,negative).
example(e543,f3,positive).
example(e543,f4,negative).
example(e543,f5,negative).
example(e543,f6,positive).
example(e543,f7,positive).
example(e543,f8,negative).
example(e543,f9,negative).
example(e543,f10,positive).
example(e543,f11,negative).
example(e543,f12,negative).
example(e543,f13,negative).
example(e543,f14,positive).
example(e543,f15,negative).
example(e543,f16,negative).
example(e543,f17,negative).
example(e543,f18,negative).
example(e544,f1,negative).
example(e544,f2,negative).
example(e544,f3,positive).
example(e544,f4,negative).
example(e544,f5,negative).
example(e544,f6,positive).
example(e544,f7,positive).
example(e544,f8,negative).
example(e544,f9,positive).
example(e544,f10,negative).
example(e544,f11,negative).
example(e544,f12,positive).
example(e544,f13,negative).
example(e544,f14,positive).
example(e544,f15,negative).
example(e544,f16,negative).
example(e544,f17,negative).
example(e544,f18,positive).
example(e545,f1,negative).
example(e545,f2,negative).
example(e545,f3,positive).
example(e545,f4,negative).
example(e545,f5,negative).
example(e545,f6,positive).
example(e545,f7,positive).
example(e545,f8,negative).
example(e545,f9,positive).
example(e545,f10,negative).
example(e545,f11,negative).
example(e545,f12,positive).
example(e545,f13,negative).
example(e545,f14,negative).
example(e545,f15,negative).
example(e545,f16,positive).
example(e545,f17,negative).
example(e545,f18,positive).
example(e546,f1,negative).
example(e546,f2,negative).
example(e546,f3,positive).
example(e546,f4,negative).
example(e546,f5,negative).
example(e546,f6,positive).
example(e546,f7,positive).
example(e546,f8,negative).
example(e546,f9,positive).
example(e546,f10,negative).
example(e546,f11,negative).
example(e546,f12,negative).
example(e546,f13,negative).
example(e546,f14,positive).
example(e546,f15,negative).
example(e546,f16,positive).
example(e546,f17,negative).
example(e546,f18,positive).
example(e547,f1,negative).
example(e547,f2,negative).
example(e547,f3,positive).
example(e547,f4,negative).
example(e547,f5,negative).
example(e547,f6,positive).
example(e547,f7,positive).
example(e547,f8,negative).
example(e547,f9,negative).
example(e547,f10,negative).
example(e547,f11,negative).
example(e547,f12,positive).
example(e547,f13,negative).
example(e547,f14,positive).
example(e547,f15,positive).
example(e547,f16,negative).
example(e547,f17,negative).
example(e547,f18,positive).
example(e548,f1,negative).
example(e548,f2,negative).
example(e548,f3,positive).
example(e548,f4,negative).
example(e548,f5,negative).
example(e548,f6,positive).
example(e548,f7,positive).
example(e548,f8,negative).
example(e548,f9,negative).
example(e548,f10,negative).
example(e548,f11,negative).
example(e548,f12,positive).
example(e548,f13,positive).
example(e548,f14,negative).
example(e548,f15,negative).
example(e548,f16,positive).
example(e548,f17,negative).
example(e548,f18,positive).
example(e549,f1,negative).
example(e549,f2,negative).
example(e549,f3,positive).
example(e549,f4,negative).
example(e549,f5,negative).
example(e549,f6,positive).
example(e549,f7,positive).
example(e549,f8,negative).
example(e549,f9,negative).
example(e549,f10,negative).
example(e549,f11,negative).
example(e549,f12,positive).
example(e549,f13,negative).
example(e549,f14,negative).
example(e549,f15,negative).
example(e549,f16,negative).
example(e549,f17,negative).
example(e549,f18,positive).
example(e550,f1,negative).
example(e550,f2,negative).
example(e550,f3,positive).
example(e550,f4,negative).
example(e550,f5,negative).
example(e550,f6,positive).
example(e550,f7,positive).
example(e550,f8,negative).
example(e550,f9,negative).
example(e550,f10,negative).
example(e550,f11,positive).
example(e550,f12,negative).
example(e550,f13,negative).
example(e550,f14,positive).
example(e550,f15,negative).
example(e550,f16,positive).
example(e550,f17,negative).
example(e550,f18,positive).
example(e551,f1,negative).
example(e551,f2,negative).
example(e551,f3,positive).
example(e551,f4,negative).
example(e551,f5,negative).
example(e551,f6,positive).
example(e551,f7,negative).
example(e551,f8,negative).
example(e551,f9,negative).
example(e551,f10,positive).
example(e551,f11,negative).
example(e551,f12,positive).
example(e551,f13,negative).
example(e551,f14,positive).
example(e551,f15,positive).
example(e551,f16,negative).
example(e551,f17,positive).
example(e551,f18,negative).
example(e552,f1,negative).
example(e552,f2,negative).
example(e552,f3,positive).
example(e552,f4,negative).
example(e552,f5,negative).
example(e552,f6,positive).
example(e552,f7,negative).
example(e552,f8,negative).
example(e552,f9,negative).
example(e552,f10,positive).
example(e552,f11,negative).
example(e552,f12,positive).
example(e552,f13,positive).
example(e552,f14,negative).
example(e552,f15,positive).
example(e552,f16,negative).
example(e552,f17,negative).
example(e552,f18,positive).
example(e553,f1,negative).
example(e553,f2,negative).
example(e553,f3,positive).
example(e553,f4,negative).
example(e553,f5,negative).
example(e553,f6,positive).
example(e553,f7,negative).
example(e553,f8,negative).
example(e553,f9,negative).
example(e553,f10,positive).
example(e553,f11,positive).
example(e553,f12,negative).
example(e553,f13,negative).
example(e553,f14,positive).
example(e553,f15,negative).
example(e553,f16,positive).
example(e553,f17,positive).
example(e553,f18,negative).
example(e554,f1,negative).
example(e554,f2,negative).
example(e554,f3,positive).
example(e554,f4,negative).
example(e554,f5,negative).
example(e554,f6,positive).
example(e554,f7,negative).
example(e554,f8,negative).
example(e554,f9,negative).
example(e554,f10,positive).
example(e554,f11,positive).
example(e554,f12,negative).
example(e554,f13,negative).
example(e554,f14,positive).
example(e554,f15,positive).
example(e554,f16,negative).
example(e554,f17,negative).
example(e554,f18,positive).
example(e555,f1,negative).
example(e555,f2,negative).
example(e555,f3,positive).
example(e555,f4,negative).
example(e555,f5,negative).
example(e555,f6,positive).
example(e555,f7,negative).
example(e555,f8,negative).
example(e555,f9,negative).
example(e555,f10,positive).
example(e555,f11,positive).
example(e555,f12,negative).
example(e555,f13,negative).
example(e555,f14,positive).
example(e555,f15,negative).
example(e555,f16,negative).
example(e555,f17,negative).
example(e555,f18,negative).
example(e556,f1,negative).
example(e556,f2,negative).
example(e556,f3,positive).
example(e556,f4,negative).
example(e556,f5,negative).
example(e556,f6,positive).
example(e556,f7,negative).
example(e556,f8,negative).
example(e556,f9,negative).
example(e556,f10,positive).
example(e556,f11,negative).
example(e556,f12,negative).
example(e556,f13,negative).
example(e556,f14,positive).
example(e556,f15,positive).
example(e556,f16,negative).
example(e556,f17,negative).
example(e556,f18,negative).
example(e557,f1,negative).
example(e557,f2,negative).
example(e557,f3,positive).
example(e557,f4,negative).
example(e557,f5,negative).
example(e557,f6,positive).
example(e557,f7,negative).
example(e557,f8,negative).
example(e557,f9,negative).
example(e557,f10,positive).
example(e557,f11,negative).
example(e557,f12,negative).
example(e557,f13,negative).
example(e557,f14,positive).
example(e557,f15,negative).
example(e557,f16,negative).
example(e557,f17,positive).
example(e557,f18,negative).
example(e558,f1,negative).
example(e558,f2,negative).
example(e558,f3,positive).
example(e558,f4,negative).
example(e558,f5,negative).
example(e558,f6,positive).
example(e558,f7,negative).
example(e558,f8,negative).
example(e558,f9,positive).
example(e558,f10,negative).
example(e558,f11,negative).
example(e558,f12,positive).
example(e558,f13,positive).
example(e558,f14,negative).
example(e558,f15,negative).
example(e558,f16,positive).
example(e558,f17,negative).
example(e558,f18,positive).
example(e559,f1,negative).
example(e559,f2,negative).
example(e559,f3,positive).
example(e559,f4,negative).
example(e559,f5,negative).
example(e559,f6,positive).
example(e559,f7,negative).
example(e559,f8,negative).
example(e559,f9,positive).
example(e559,f10,negative).
example(e559,f11,negative).
example(e559,f12,positive).
example(e559,f13,negative).
example(e559,f14,negative).
example(e559,f15,negative).
example(e559,f16,negative).
example(e559,f17,negative).
example(e559,f18,positive).
example(e560,f1,negative).
example(e560,f2,negative).
example(e560,f3,positive).
example(e560,f4,negative).
example(e560,f5,negative).
example(e560,f6,positive).
example(e560,f7,negative).
example(e560,f8,negative).
example(e560,f9,positive).
example(e560,f10,negative).
example(e560,f11,positive).
example(e560,f12,negative).
example(e560,f13,negative).
example(e560,f14,positive).
example(e560,f15,negative).
example(e560,f16,positive).
example(e560,f17,negative).
example(e560,f18,positive).
example(e561,f1,negative).
example(e561,f2,negative).
example(e561,f3,positive).
example(e561,f4,negative).
example(e561,f5,negative).
example(e561,f6,positive).
example(e561,f7,negative).
example(e561,f8,negative).
example(e561,f9,negative).
example(e561,f10,negative).
example(e561,f11,negative).
example(e561,f12,positive).
example(e561,f13,positive).
example(e561,f14,negative).
example(e561,f15,negative).
example(e561,f16,negative).
example(e561,f17,negative).
example(e561,f18,positive).
example(e562,f1,negative).
example(e562,f2,negative).
example(e562,f3,positive).
example(e562,f4,negative).
example(e562,f5,negative).
example(e562,f6,positive).
example(e562,f7,negative).
example(e562,f8,negative).
example(e562,f9,negative).
example(e562,f10,negative).
example(e562,f11,negative).
example(e562,f12,positive).
example(e562,f13,negative).
example(e562,f14,negative).
example(e562,f15,positive).
example(e562,f16,negative).
example(e562,f17,negative).
example(e562,f18,positive).
example(e563,f1,negative).
example(e563,f2,negative).
example(e563,f3,positive).
example(e563,f4,negative).
example(e563,f5,positive).
example(e563,f6,negative).
example(e563,f7,negative).
example(e563,f8,positive).
example(e563,f9,negative).
example(e563,f10,positive).
example(e563,f11,negative).
example(e563,f12,positive).
example(e563,f13,negative).
example(e563,f14,positive).
example(e563,f15,positive).
example(e563,f16,negative).
example(e563,f17,negative).
example(e563,f18,negative).
example(e564,f1,negative).
example(e564,f2,negative).
example(e564,f3,positive).
example(e564,f4,negative).
example(e564,f5,positive).
example(e564,f6,negative).
example(e564,f7,negative).
example(e564,f8,positive).
example(e564,f9,negative).
example(e564,f10,positive).
example(e564,f11,negative).
example(e564,f12,positive).
example(e564,f13,negative).
example(e564,f14,positive).
example(e564,f15,negative).
example(e564,f16,negative).
example(e564,f17,positive).
example(e564,f18,negative).
example(e565,f1,negative).
example(e565,f2,negative).
example(e565,f3,positive).
example(e565,f4,negative).
example(e565,f5,positive).
example(e565,f6,negative).
example(e565,f7,negative).
example(e565,f8,positive).
example(e565,f9,negative).
example(e565,f10,positive).
example(e565,f11,negative).
example(e565,f12,positive).
example(e565,f13,positive).
example(e565,f14,negative).
example(e565,f15,negative).
example(e565,f16,positive).
example(e565,f17,negative).
example(e565,f18,negative).
example(e566,f1,negative).
example(e566,f2,negative).
example(e566,f3,positive).
example(e566,f4,negative).
example(e566,f5,positive).
example(e566,f6,negative).
example(e566,f7,negative).
example(e566,f8,positive).
example(e566,f9,negative).
example(e566,f10,positive).
example(e566,f11,negative).
example(e566,f12,positive).
example(e566,f13,positive).
example(e566,f14,negative).
example(e566,f15,negative).
example(e566,f16,negative).
example(e566,f17,negative).
example(e566,f18,positive).
example(e567,f1,negative).
example(e567,f2,negative).
example(e567,f3,positive).
example(e567,f4,negative).
example(e567,f5,positive).
example(e567,f6,negative).
example(e567,f7,negative).
example(e567,f8,positive).
example(e567,f9,negative).
example(e567,f10,positive).
example(e567,f11,negative).
example(e567,f12,positive).
example(e567,f13,negative).
example(e567,f14,negative).
example(e567,f15,negative).
example(e567,f16,positive).
example(e567,f17,positive).
example(e567,f18,negative).
example(e568,f1,negative).
example(e568,f2,negative).
example(e568,f3,positive).
example(e568,f4,negative).
example(e568,f5,positive).
example(e568,f6,negative).
example(e568,f7,negative).
example(e568,f8,positive).
example(e568,f9,negative).
example(e568,f10,positive).
example(e568,f11,negative).
example(e568,f12,positive).
example(e568,f13,negative).
example(e568,f14,negative).
example(e568,f15,positive).
example(e568,f16,negative).
example(e568,f17,negative).
example(e568,f18,positive).
example(e569,f1,negative).
example(e569,f2,negative).
example(e569,f3,positive).
example(e569,f4,negative).
example(e569,f5,positive).
example(e569,f6,negative).
example(e569,f7,negative).
example(e569,f8,positive).
example(e569,f9,negative).
example(e569,f10,positive).
example(e569,f11,negative).
example(e569,f12,positive).
example(e569,f13,negative).
example(e569,f14,negative).
example(e569,f15,negative).
example(e569,f16,negative).
example(e569,f17,negative).
example(e569,f18,negative).
example(e570,f1,negative).
example(e570,f2,negative).
example(e570,f3,positive).
example(e570,f4,negative).
example(e570,f5,positive).
example(e570,f6,negative).
example(e570,f7,negative).
example(e570,f8,positive).
example(e570,f9,positive).
example(e570,f10,negative).
example(e570,f11,negative).
example(e570,f12,negative).
example(e570,f13,negative).
example(e570,f14,positive).
example(e570,f15,negative).
example(e570,f16,positive).
example(e570,f17,negative).
example(e570,f18,positive).
example(e571,f1,negative).
example(e571,f2,negative).
example(e571,f3,positive).
example(e571,f4,negative).
example(e571,f5,positive).
example(e571,f6,negative).
example(e571,f7,negative).
example(e571,f8,positive).
example(e571,f9,negative).
example(e571,f10,negative).
example(e571,f11,positive).
example(e571,f12,negative).
example(e571,f13,negative).
example(e571,f14,positive).
example(e571,f15,negative).
example(e571,f16,positive).
example(e571,f17,negative).
example(e571,f18,positive).
example(e572,f1,negative).
example(e572,f2,negative).
example(e572,f3,positive).
example(e572,f4,negative).
example(e572,f5,positive).
example(e572,f6,negative).
example(e572,f7,positive).
example(e572,f8,negative).
example(e572,f9,negative).
example(e572,f10,positive).
example(e572,f11,negative).
example(e572,f12,negative).
example(e572,f13,negative).
example(e572,f14,positive).
example(e572,f15,negative).
example(e572,f16,positive).
example(e572,f17,negative).
example(e572,f18,positive).
example(e573,f1,negative).
example(e573,f2,negative).
example(e573,f3,positive).
example(e573,f4,negative).
example(e573,f5,positive).
example(e573,f6,negative).
example(e573,f7,positive).
example(e573,f8,negative).
example(e573,f9,negative).
example(e573,f10,negative).
example(e573,f11,negative).
example(e573,f12,positive).
example(e573,f13,negative).
example(e573,f14,positive).
example(e573,f15,negative).
example(e573,f16,positive).
example(e573,f17,negative).
example(e573,f18,positive).
example(e574,f1,negative).
example(e574,f2,negative).
example(e574,f3,positive).
example(e574,f4,negative).
example(e574,f5,positive).
example(e574,f6,negative).
example(e574,f7,negative).
example(e574,f8,negative).
example(e574,f9,negative).
example(e574,f10,positive).
example(e574,f11,positive).
example(e574,f12,negative).
example(e574,f13,negative).
example(e574,f14,positive).
example(e574,f15,negative).
example(e574,f16,positive).
example(e574,f17,negative).
example(e574,f18,positive).
example(e575,f1,negative).
example(e575,f2,negative).
example(e575,f3,positive).
example(e575,f4,negative).
example(e575,f5,positive).
example(e575,f6,negative).
example(e575,f7,negative).
example(e575,f8,negative).
example(e575,f9,positive).
example(e575,f10,negative).
example(e575,f11,negative).
example(e575,f12,positive).
example(e575,f13,negative).
example(e575,f14,positive).
example(e575,f15,negative).
example(e575,f16,positive).
example(e575,f17,negative).
example(e575,f18,positive).
example(e576,f1,negative).
example(e576,f2,negative).
example(e576,f3,positive).
example(e576,f4,negative).
example(e576,f5,positive).
example(e576,f6,negative).
example(e576,f7,negative).
example(e576,f8,negative).
example(e576,f9,negative).
example(e576,f10,negative).
example(e576,f11,negative).
example(e576,f12,negative).
example(e576,f13,negative).
example(e576,f14,positive).
example(e576,f15,negative).
example(e576,f16,positive).
example(e576,f17,negative).
example(e576,f18,positive).
example(e577,f1,negative).
example(e577,f2,negative).
example(e577,f3,positive).
example(e577,f4,negative).
example(e577,f5,negative).
example(e577,f6,negative).
example(e577,f7,negative).
example(e577,f8,positive).
example(e577,f9,negative).
example(e577,f10,positive).
example(e577,f11,negative).
example(e577,f12,positive).
example(e577,f13,negative).
example(e577,f14,positive).
example(e577,f15,positive).
example(e577,f16,negative).
example(e577,f17,positive).
example(e577,f18,negative).
example(e578,f1,negative).
example(e578,f2,negative).
example(e578,f3,positive).
example(e578,f4,negative).
example(e578,f5,negative).
example(e578,f6,negative).
example(e578,f7,negative).
example(e578,f8,positive).
example(e578,f9,negative).
example(e578,f10,positive).
example(e578,f11,negative).
example(e578,f12,positive).
example(e578,f13,positive).
example(e578,f14,negative).
example(e578,f15,negative).
example(e578,f16,positive).
example(e578,f17,positive).
example(e578,f18,negative).
example(e579,f1,negative).
example(e579,f2,negative).
example(e579,f3,positive).
example(e579,f4,negative).
example(e579,f5,negative).
example(e579,f6,negative).
example(e579,f7,negative).
example(e579,f8,positive).
example(e579,f9,negative).
example(e579,f10,positive).
example(e579,f11,negative).
example(e579,f12,positive).
example(e579,f13,positive).
example(e579,f14,negative).
example(e579,f15,positive).
example(e579,f16,negative).
example(e579,f17,negative).
example(e579,f18,positive).
example(e580,f1,negative).
example(e580,f2,negative).
example(e580,f3,positive).
example(e580,f4,negative).
example(e580,f5,negative).
example(e580,f6,negative).
example(e580,f7,negative).
example(e580,f8,positive).
example(e580,f9,negative).
example(e580,f10,positive).
example(e580,f11,negative).
example(e580,f12,positive).
example(e580,f13,positive).
example(e580,f14,negative).
example(e580,f15,negative).
example(e580,f16,negative).
example(e580,f17,negative).
example(e580,f18,negative).
example(e581,f1,negative).
example(e581,f2,negative).
example(e581,f3,positive).
example(e581,f4,negative).
example(e581,f5,negative).
example(e581,f6,negative).
example(e581,f7,negative).
example(e581,f8,positive).
example(e581,f9,negative).
example(e581,f10,positive).
example(e581,f11,negative).
example(e581,f12,positive).
example(e581,f13,negative).
example(e581,f14,negative).
example(e581,f15,positive).
example(e581,f16,negative).
example(e581,f17,negative).
example(e581,f18,negative).
example(e582,f1,negative).
example(e582,f2,negative).
example(e582,f3,positive).
example(e582,f4,negative).
example(e582,f5,negative).
example(e582,f6,negative).
example(e582,f7,negative).
example(e582,f8,positive).
example(e582,f9,negative).
example(e582,f10,positive).
example(e582,f11,negative).
example(e582,f12,positive).
example(e582,f13,negative).
example(e582,f14,negative).
example(e582,f15,negative).
example(e582,f16,negative).
example(e582,f17,positive).
example(e582,f18,negative).
example(e583,f1,negative).
example(e583,f2,negative).
example(e583,f3,positive).
example(e583,f4,negative).
example(e583,f5,negative).
example(e583,f6,negative).
example(e583,f7,negative).
example(e583,f8,positive).
example(e583,f9,positive).
example(e583,f10,negative).
example(e583,f11,positive).
example(e583,f12,negative).
example(e583,f13,negative).
example(e583,f14,positive).
example(e583,f15,negative).
example(e583,f16,positive).
example(e583,f17,negative).
example(e583,f18,positive).
example(e584,f1,negative).
example(e584,f2,negative).
example(e584,f3,positive).
example(e584,f4,negative).
example(e584,f5,negative).
example(e584,f6,negative).
example(e584,f7,positive).
example(e584,f8,negative).
example(e584,f9,negative).
example(e584,f10,positive).
example(e584,f11,positive).
example(e584,f12,negative).
example(e584,f13,negative).
example(e584,f14,positive).
example(e584,f15,negative).
example(e584,f16,positive).
example(e584,f17,negative).
example(e584,f18,positive).
example(e585,f1,negative).
example(e585,f2,negative).
example(e585,f3,positive).
example(e585,f4,negative).
example(e585,f5,negative).
example(e585,f6,negative).
example(e585,f7,positive).
example(e585,f8,negative).
example(e585,f9,positive).
example(e585,f10,negative).
example(e585,f11,negative).
example(e585,f12,positive).
example(e585,f13,negative).
example(e585,f14,positive).
example(e585,f15,negative).
example(e585,f16,positive).
example(e585,f17,negative).
example(e585,f18,positive).
example(e586,f1,negative).
example(e586,f2,negative).
example(e586,f3,positive).
example(e586,f4,negative).
example(e586,f5,negative).
example(e586,f6,negative).
example(e586,f7,positive).
example(e586,f8,negative).
example(e586,f9,negative).
example(e586,f10,negative).
example(e586,f11,negative).
example(e586,f12,negative).
example(e586,f13,negative).
example(e586,f14,positive).
example(e586,f15,negative).
example(e586,f16,positive).
example(e586,f17,negative).
example(e586,f18,positive).
example(e587,f1,negative).
example(e587,f2,negative).
example(e587,f3,positive).
example(e587,f4,negative).
example(e587,f5,negative).
example(e587,f6,negative).
example(e587,f7,negative).
example(e587,f8,negative).
example(e587,f9,positive).
example(e587,f10,negative).
example(e587,f11,negative).
example(e587,f12,negative).
example(e587,f13,negative).
example(e587,f14,positive).
example(e587,f15,negative).
example(e587,f16,positive).
example(e587,f17,negative).
example(e587,f18,positive).
example(e588,f1,negative).
example(e588,f2,negative).
example(e588,f3,positive).
example(e588,f4,negative).
example(e588,f5,negative).
example(e588,f6,negative).
example(e588,f7,negative).
example(e588,f8,negative).
example(e588,f9,negative).
example(e588,f10,negative).
example(e588,f11,positive).
example(e588,f12,negative).
example(e588,f13,negative).
example(e588,f14,positive).
example(e588,f15,negative).
example(e588,f16,positive).
example(e588,f17,negative).
example(e588,f18,positive).
example(e589,f1,negative).
example(e589,f2,negative).
example(e589,f3,negative).
example(e589,f4,negative).
example(e589,f5,negative).
example(e589,f6,positive).
example(e589,f7,negative).
example(e589,f8,positive).
example(e589,f9,negative).
example(e589,f10,positive).
example(e589,f11,positive).
example(e589,f12,negative).
example(e589,f13,negative).
example(e589,f14,positive).
example(e589,f15,positive).
example(e589,f16,negative).
example(e589,f17,positive).
example(e589,f18,negative).
example(e590,f1,negative).
example(e590,f2,negative).
example(e590,f3,negative).
example(e590,f4,negative).
example(e590,f5,negative).
example(e590,f6,positive).
example(e590,f7,negative).
example(e590,f8,positive).
example(e590,f9,positive).
example(e590,f10,negative).
example(e590,f11,negative).
example(e590,f12,positive).
example(e590,f13,positive).
example(e590,f14,negative).
example(e590,f15,positive).
example(e590,f16,negative).
example(e590,f17,negative).
example(e590,f18,positive).
example(e591,f1,negative).
example(e591,f2,negative).
example(e591,f3,negative).
example(e591,f4,negative).
example(e591,f5,negative).
example(e591,f6,positive).
example(e591,f7,positive).
example(e591,f8,negative).
example(e591,f9,negative).
example(e591,f10,positive).
example(e591,f11,negative).
example(e591,f12,positive).
example(e591,f13,negative).
example(e591,f14,positive).
example(e591,f15,positive).
example(e591,f16,negative).
example(e591,f17,positive).
example(e591,f18,negative).
example(e592,f1,negative).
example(e592,f2,negative).
example(e592,f3,negative).
example(e592,f4,negative).
example(e592,f5,negative).
example(e592,f6,positive).
example(e592,f7,positive).
example(e592,f8,negative).
example(e592,f9,negative).
example(e592,f10,positive).
example(e592,f11,negative).
example(e592,f12,positive).
example(e592,f13,positive).
example(e592,f14,negative).
example(e592,f15,positive).
example(e592,f16,negative).
example(e592,f17,negative).
example(e592,f18,positive).
example(e593,f1,negative).
example(e593,f2,negative).
example(e593,f3,negative).
example(e593,f4,negative).
example(e593,f5,negative).
example(e593,f6,positive).
example(e593,f7,positive).
example(e593,f8,negative).
example(e593,f9,negative).
example(e593,f10,positive).
example(e593,f11,positive).
example(e593,f12,negative).
example(e593,f13,negative).
example(e593,f14,positive).
example(e593,f15,negative).
example(e593,f16,positive).
example(e593,f17,positive).
example(e593,f18,negative).
example(e594,f1,negative).
example(e594,f2,negative).
example(e594,f3,negative).
example(e594,f4,negative).
example(e594,f5,negative).
example(e594,f6,positive).
example(e594,f7,positive).
example(e594,f8,negative).
example(e594,f9,negative).
example(e594,f10,positive).
example(e594,f11,positive).
example(e594,f12,negative).
example(e594,f13,negative).
example(e594,f14,positive).
example(e594,f15,positive).
example(e594,f16,negative).
example(e594,f17,negative).
example(e594,f18,positive).
example(e595,f1,negative).
example(e595,f2,negative).
example(e595,f3,negative).
example(e595,f4,negative).
example(e595,f5,negative).
example(e595,f6,positive).
example(e595,f7,positive).
example(e595,f8,negative).
example(e595,f9,negative).
example(e595,f10,positive).
example(e595,f11,positive).
example(e595,f12,negative).
example(e595,f13,negative).
example(e595,f14,positive).
example(e595,f15,negative).
example(e595,f16,negative).
example(e595,f17,negative).
example(e595,f18,negative).
example(e596,f1,negative).
example(e596,f2,negative).
example(e596,f3,negative).
example(e596,f4,negative).
example(e596,f5,negative).
example(e596,f6,positive).
example(e596,f7,positive).
example(e596,f8,negative).
example(e596,f9,negative).
example(e596,f10,positive).
example(e596,f11,negative).
example(e596,f12,negative).
example(e596,f13,negative).
example(e596,f14,positive).
example(e596,f15,positive).
example(e596,f16,negative).
example(e596,f17,negative).
example(e596,f18,negative).
example(e597,f1,negative).
example(e597,f2,negative).
example(e597,f3,negative).
example(e597,f4,negative).
example(e597,f5,negative).
example(e597,f6,positive).
example(e597,f7,positive).
example(e597,f8,negative).
example(e597,f9,negative).
example(e597,f10,positive).
example(e597,f11,negative).
example(e597,f12,negative).
example(e597,f13,negative).
example(e597,f14,positive).
example(e597,f15,negative).
example(e597,f16,negative).
example(e597,f17,positive).
example(e597,f18,negative).
example(e598,f1,negative).
example(e598,f2,negative).
example(e598,f3,negative).
example(e598,f4,negative).
example(e598,f5,negative).
example(e598,f6,positive).
example(e598,f7,positive).
example(e598,f8,negative).
example(e598,f9,positive).
example(e598,f10,negative).
example(e598,f11,negative).
example(e598,f12,positive).
example(e598,f13,negative).
example(e598,f14,positive).
example(e598,f15,positive).
example(e598,f16,negative).
example(e598,f17,negative).
example(e598,f18,positive).
example(e599,f1,negative).
example(e599,f2,negative).
example(e599,f3,negative).
example(e599,f4,negative).
example(e599,f5,negative).
example(e599,f6,positive).
example(e599,f7,positive).
example(e599,f8,negative).
example(e599,f9,positive).
example(e599,f10,negative).
example(e599,f11,negative).
example(e599,f12,positive).
example(e599,f13,positive).
example(e599,f14,negative).
example(e599,f15,negative).
example(e599,f16,positive).
example(e599,f17,negative).
example(e599,f18,positive).
example(e600,f1,negative).
example(e600,f2,negative).
example(e600,f3,negative).
example(e600,f4,negative).
example(e600,f5,negative).
example(e600,f6,positive).
example(e600,f7,positive).
example(e600,f8,negative).
example(e600,f9,positive).
example(e600,f10,negative).
example(e600,f11,negative).
example(e600,f12,positive).
example(e600,f13,negative).
example(e600,f14,negative).
example(e600,f15,negative).
example(e600,f16,negative).
example(e600,f17,negative).
example(e600,f18,positive).
example(e601,f1,negative).
example(e601,f2,negative).
example(e601,f3,negative).
example(e601,f4,negative).
example(e601,f5,negative).
example(e601,f6,positive).
example(e601,f7,positive).
example(e601,f8,negative).
example(e601,f9,negative).
example(e601,f10,negative).
example(e601,f11,negative).
example(e601,f12,positive).
example(e601,f13,positive).
example(e601,f14,negative).
example(e601,f15,negative).
example(e601,f16,negative).
example(e601,f17,negative).
example(e601,f18,positive).
example(e602,f1,negative).
example(e602,f2,negative).
example(e602,f3,negative).
example(e602,f4,negative).
example(e602,f5,negative).
example(e602,f6,positive).
example(e602,f7,positive).
example(e602,f8,negative).
example(e602,f9,negative).
example(e602,f10,negative).
example(e602,f11,negative).
example(e602,f12,positive).
example(e602,f13,negative).
example(e602,f14,negative).
example(e602,f15,positive).
example(e602,f16,negative).
example(e602,f17,negative).
example(e602,f18,positive).
example(e603,f1,negative).
example(e603,f2,negative).
example(e603,f3,negative).
example(e603,f4,negative).
example(e603,f5,negative).
example(e603,f6,positive).
example(e603,f7,negative).
example(e603,f8,negative).
example(e603,f9,negative).
example(e603,f10,positive).
example(e603,f11,positive).
example(e603,f12,negative).
example(e603,f13,negative).
example(e603,f14,positive).
example(e603,f15,positive).
example(e603,f16,negative).
example(e603,f17,negative).
example(e603,f18,negative).
example(e604,f1,negative).
example(e604,f2,negative).
example(e604,f3,negative).
example(e604,f4,negative).
example(e604,f5,negative).
example(e604,f6,positive).
example(e604,f7,negative).
example(e604,f8,negative).
example(e604,f9,negative).
example(e604,f10,positive).
example(e604,f11,positive).
example(e604,f12,negative).
example(e604,f13,negative).
example(e604,f14,positive).
example(e604,f15,negative).
example(e604,f16,negative).
example(e604,f17,positive).
example(e604,f18,negative).
example(e605,f1,negative).
example(e605,f2,negative).
example(e605,f3,negative).
example(e605,f4,negative).
example(e605,f5,negative).
example(e605,f6,positive).
example(e605,f7,negative).
example(e605,f8,negative).
example(e605,f9,negative).
example(e605,f10,positive).
example(e605,f11,negative).
example(e605,f12,negative).
example(e605,f13,negative).
example(e605,f14,positive).
example(e605,f15,positive).
example(e605,f16,negative).
example(e605,f17,positive).
example(e605,f18,negative).
example(e606,f1,negative).
example(e606,f2,negative).
example(e606,f3,negative).
example(e606,f4,negative).
example(e606,f5,negative).
example(e606,f6,positive).
example(e606,f7,negative).
example(e606,f8,negative).
example(e606,f9,positive).
example(e606,f10,negative).
example(e606,f11,negative).
example(e606,f12,positive).
example(e606,f13,positive).
example(e606,f14,negative).
example(e606,f15,negative).
example(e606,f16,negative).
example(e606,f17,negative).
example(e606,f18,positive).
example(e607,f1,negative).
example(e607,f2,negative).
example(e607,f3,negative).
example(e607,f4,negative).
example(e607,f5,negative).
example(e607,f6,positive).
example(e607,f7,negative).
example(e607,f8,negative).
example(e607,f9,positive).
example(e607,f10,negative).
example(e607,f11,negative).
example(e607,f12,positive).
example(e607,f13,negative).
example(e607,f14,negative).
example(e607,f15,positive).
example(e607,f16,negative).
example(e607,f17,negative).
example(e607,f18,positive).
example(e608,f1,negative).
example(e608,f2,negative).
example(e608,f3,negative).
example(e608,f4,negative).
example(e608,f5,negative).
example(e608,f6,positive).
example(e608,f7,negative).
example(e608,f8,negative).
example(e608,f9,negative).
example(e608,f10,negative).
example(e608,f11,negative).
example(e608,f12,positive).
example(e608,f13,positive).
example(e608,f14,negative).
example(e608,f15,positive).
example(e608,f16,negative).
example(e608,f17,negative).
example(e608,f18,positive).
example(e609,f1,negative).
example(e609,f2,negative).
example(e609,f3,negative).
example(e609,f4,negative).
example(e609,f5,positive).
example(e609,f6,negative).
example(e609,f7,negative).
example(e609,f8,positive).
example(e609,f9,negative).
example(e609,f10,positive).
example(e609,f11,negative).
example(e609,f12,positive).
example(e609,f13,negative).
example(e609,f14,positive).
example(e609,f15,positive).
example(e609,f16,negative).
example(e609,f17,positive).
example(e609,f18,negative).
example(e610,f1,negative).
example(e610,f2,negative).
example(e610,f3,negative).
example(e610,f4,negative).
example(e610,f5,positive).
example(e610,f6,negative).
example(e610,f7,negative).
example(e610,f8,positive).
example(e610,f9,negative).
example(e610,f10,positive).
example(e610,f11,negative).
example(e610,f12,positive).
example(e610,f13,positive).
example(e610,f14,negative).
example(e610,f15,negative).
example(e610,f16,positive).
example(e610,f17,positive).
example(e610,f18,negative).
example(e611,f1,negative).
example(e611,f2,negative).
example(e611,f3,negative).
example(e611,f4,negative).
example(e611,f5,positive).
example(e611,f6,negative).
example(e611,f7,negative).
example(e611,f8,positive).
example(e611,f9,negative).
example(e611,f10,positive).
example(e611,f11,negative).
example(e611,f12,positive).
example(e611,f13,positive).
example(e611,f14,negative).
example(e611,f15,positive).
example(e611,f16,negative).
example(e611,f17,negative).
example(e611,f18,positive).
example(e612,f1,negative).
example(e612,f2,negative).
example(e612,f3,negative).
example(e612,f4,negative).
example(e612,f5,positive).
example(e612,f6,negative).
example(e612,f7,negative).
example(e612,f8,positive).
example(e612,f9,negative).
example(e612,f10,positive).
example(e612,f11,negative).
example(e612,f12,positive).
example(e612,f13,positive).
example(e612,f14,negative).
example(e612,f15,negative).
example(e612,f16,negative).
example(e612,f17,negative).
example(e612,f18,negative).
example(e613,f1,negative).
example(e613,f2,negative).
example(e613,f3,negative).
example(e613,f4,negative).
example(e613,f5,positive).
example(e613,f6,negative).
example(e613,f7,negative).
example(e613,f8,positive).
example(e613,f9,negative).
example(e613,f10,positive).
example(e613,f11,negative).
example(e613,f12,positive).
example(e613,f13,negative).
example(e613,f14,negative).
example(e613,f15,positive).
example(e613,f16,negative).
example(e613,f17,negative).
example(e613,f18,negative).
example(e614,f1,negative).
example(e614,f2,negative).
example(e614,f3,negative).
example(e614,f4,negative).
example(e614,f5,positive).
example(e614,f6,negative).
example(e614,f7,negative).
example(e614,f8,positive).
example(e614,f9,negative).
example(e614,f10,positive).
example(e614,f11,negative).
example(e614,f12,positive).
example(e614,f13,negative).
example(e614,f14,negative).
example(e614,f15,negative).
example(e614,f16,negative).
example(e614,f17,positive).
example(e614,f18,negative).
example(e615,f1,negative).
example(e615,f2,negative).
example(e615,f3,negative).
example(e615,f4,negative).
example(e615,f5,positive).
example(e615,f6,negative).
example(e615,f7,negative).
example(e615,f8,positive).
example(e615,f9,positive).
example(e615,f10,negative).
example(e615,f11,positive).
example(e615,f12,negative).
example(e615,f13,negative).
example(e615,f14,positive).
example(e615,f15,negative).
example(e615,f16,positive).
example(e615,f17,negative).
example(e615,f18,positive).
example(e616,f1,negative).
example(e616,f2,negative).
example(e616,f3,negative).
example(e616,f4,negative).
example(e616,f5,positive).
example(e616,f6,negative).
example(e616,f7,positive).
example(e616,f8,negative).
example(e616,f9,negative).
example(e616,f10,positive).
example(e616,f11,positive).
example(e616,f12,negative).
example(e616,f13,negative).
example(e616,f14,positive).
example(e616,f15,negative).
example(e616,f16,positive).
example(e616,f17,negative).
example(e616,f18,positive).
example(e617,f1,negative).
example(e617,f2,negative).
example(e617,f3,negative).
example(e617,f4,negative).
example(e617,f5,positive).
example(e617,f6,negative).
example(e617,f7,positive).
example(e617,f8,negative).
example(e617,f9,positive).
example(e617,f10,negative).
example(e617,f11,negative).
example(e617,f12,positive).
example(e617,f13,negative).
example(e617,f14,positive).
example(e617,f15,negative).
example(e617,f16,positive).
example(e617,f17,negative).
example(e617,f18,positive).
example(e618,f1,negative).
example(e618,f2,negative).
example(e618,f3,negative).
example(e618,f4,negative).
example(e618,f5,positive).
example(e618,f6,negative).
example(e618,f7,positive).
example(e618,f8,negative).
example(e618,f9,negative).
example(e618,f10,negative).
example(e618,f11,negative).
example(e618,f12,negative).
example(e618,f13,negative).
example(e618,f14,positive).
example(e618,f15,negative).
example(e618,f16,positive).
example(e618,f17,negative).
example(e618,f18,positive).
example(e619,f1,negative).
example(e619,f2,negative).
example(e619,f3,negative).
example(e619,f4,negative).
example(e619,f5,positive).
example(e619,f6,negative).
example(e619,f7,negative).
example(e619,f8,negative).
example(e619,f9,positive).
example(e619,f10,negative).
example(e619,f11,negative).
example(e619,f12,negative).
example(e619,f13,negative).
example(e619,f14,positive).
example(e619,f15,negative).
example(e619,f16,positive).
example(e619,f17,negative).
example(e619,f18,positive).
example(e620,f1,negative).
example(e620,f2,negative).
example(e620,f3,negative).
example(e620,f4,negative).
example(e620,f5,positive).
example(e620,f6,negative).
example(e620,f7,negative).
example(e620,f8,negative).
example(e620,f9,negative).
example(e620,f10,negative).
example(e620,f11,positive).
example(e620,f12,negative).
example(e620,f13,negative).
example(e620,f14,positive).
example(e620,f15,negative).
example(e620,f16,positive).
example(e620,f17,negative).
example(e620,f18,positive).
example(e621,f1,negative).
example(e621,f2,negative).
example(e621,f3,negative).
example(e621,f4,negative).
example(e621,f5,negative).
example(e621,f6,negative).
example(e621,f7,negative).
example(e621,f8,positive).
example(e621,f9,negative).
example(e621,f10,positive).
example(e621,f11,negative).
example(e621,f12,positive).
example(e621,f13,positive).
example(e621,f14,negative).
example(e621,f15,positive).
example(e621,f16,negative).
example(e621,f17,negative).
example(e621,f18,negative).
example(e622,f1,negative).
example(e622,f2,negative).
example(e622,f3,negative).
example(e622,f4,negative).
example(e622,f5,negative).
example(e622,f6,negative).
example(e622,f7,negative).
example(e622,f8,positive).
example(e622,f9,negative).
example(e622,f10,positive).
example(e622,f11,negative).
example(e622,f12,positive).
example(e622,f13,positive).
example(e622,f14,negative).
example(e622,f15,negative).
example(e622,f16,negative).
example(e622,f17,positive).
example(e622,f18,negative).
example(e623,f1,negative).
example(e623,f2,negative).
example(e623,f3,negative).
example(e623,f4,negative).
example(e623,f5,negative).
example(e623,f6,negative).
example(e623,f7,negative).
example(e623,f8,positive).
example(e623,f9,negative).
example(e623,f10,positive).
example(e623,f11,negative).
example(e623,f12,positive).
example(e623,f13,negative).
example(e623,f14,negative).
example(e623,f15,positive).
example(e623,f16,negative).
example(e623,f17,positive).
example(e623,f18,negative).
example(e624,f1,negative).
example(e624,f2,negative).
example(e624,f3,negative).
example(e624,f4,negative).
example(e624,f5,negative).
example(e624,f6,negative).
example(e624,f7,positive).
example(e624,f8,negative).
example(e624,f9,positive).
example(e624,f10,negative).
example(e624,f11,negative).
example(e624,f12,negative).
example(e624,f13,negative).
example(e624,f14,positive).
example(e624,f15,negative).
example(e624,f16,positive).
example(e624,f17,negative).
example(e624,f18,positive).
example(e625,f1,negative).
example(e625,f2,negative).
example(e625,f3,negative).
example(e625,f4,negative).
example(e625,f5,negative).
example(e625,f6,negative).
example(e625,f7,positive).
example(e625,f8,negative).
example(e625,f9,negative).
example(e625,f10,negative).
example(e625,f11,positive).
example(e625,f12,negative).
example(e625,f13,negative).
example(e625,f14,positive).
example(e625,f15,negative).
example(e625,f16,positive).
example(e625,f17,negative).
example(e625,f18,positive).
example(e626,f1,negative).
example(e626,f2,negative).
example(e626,f3,negative).
example(e626,f4,negative).
example(e626,f5,negative).
example(e626,f6,negative).
example(e626,f7,negative).
example(e626,f8,negative).
example(e626,f9,positive).
example(e626,f10,negative).
example(e626,f11,positive).
example(e626,f12,negative).
example(e626,f13,negative).
example(e626,f14,positive).
example(e626,f15,negative).
example(e626,f16,positive).
example(e626,f17,negative).
example(e626,f18,positive).
example(e627,f1,negative).
example(e627,f2,positive).
example(e627,f3,negative).
example(e627,f4,positive).
example(e627,f5,positive).
example(e627,f6,negative).
example(e627,f7,negative).
example(e627,f8,positive).
example(e627,f9,negative).
example(e627,f10,positive).
example(e627,f11,positive).
example(e627,f12,negative).
example(e627,f13,positive).
example(e627,f14,negative).
example(e627,f15,negative).
example(e627,f16,negative).
example(e627,f17,positive).
example(e627,f18,negative).
example(e628,f1,negative).
example(e628,f2,positive).
example(e628,f3,negative).
example(e628,f4,positive).
example(e628,f5,positive).
example(e628,f6,negative).
example(e628,f7,negative).
example(e628,f8,positive).
example(e628,f9,negative).
example(e628,f10,positive).
example(e628,f11,positive).
example(e628,f12,negative).
example(e628,f13,negative).
example(e628,f14,negative).
example(e628,f15,positive).
example(e628,f16,negative).
example(e628,f17,positive).
example(e628,f18,negative).
example(e629,f1,negative).
example(e629,f2,positive).
example(e629,f3,negative).
example(e629,f4,positive).
example(e629,f5,positive).
example(e629,f6,negative).
example(e629,f7,negative).
example(e629,f8,positive).
example(e629,f9,negative).
example(e629,f10,positive).
example(e629,f11,negative).
example(e629,f12,negative).
example(e629,f13,positive).
example(e629,f14,negative).
example(e629,f15,positive).
example(e629,f16,negative).
example(e629,f17,positive).
example(e629,f18,negative).
example(e630,f1,negative).
example(e630,f2,positive).
example(e630,f3,negative).
example(e630,f4,positive).
example(e630,f5,positive).
example(e630,f6,negative).
example(e630,f7,negative).
example(e630,f8,positive).
example(e630,f9,positive).
example(e630,f10,negative).
example(e630,f11,negative).
example(e630,f12,positive).
example(e630,f13,positive).
example(e630,f14,negative).
example(e630,f15,positive).
example(e630,f16,negative).
example(e630,f17,negative).
example(e630,f18,negative).
example(e631,f1,negative).
example(e631,f2,positive).
example(e631,f3,negative).
example(e631,f4,positive).
example(e631,f5,positive).
example(e631,f6,negative).
example(e631,f7,negative).
example(e631,f8,positive).
example(e631,f9,positive).
example(e631,f10,negative).
example(e631,f11,negative).
example(e631,f12,positive).
example(e631,f13,positive).
example(e631,f14,negative).
example(e631,f15,negative).
example(e631,f16,negative).
example(e631,f17,positive).
example(e631,f18,negative).
example(e632,f1,negative).
example(e632,f2,positive).
example(e632,f3,negative).
example(e632,f4,positive).
example(e632,f5,positive).
example(e632,f6,negative).
example(e632,f7,negative).
example(e632,f8,positive).
example(e632,f9,positive).
example(e632,f10,negative).
example(e632,f11,positive).
example(e632,f12,negative).
example(e632,f13,positive).
example(e632,f14,negative).
example(e632,f15,negative).
example(e632,f16,positive).
example(e632,f17,negative).
example(e632,f18,negative).
example(e633,f1,negative).
example(e633,f2,positive).
example(e633,f3,negative).
example(e633,f4,positive).
example(e633,f5,positive).
example(e633,f6,negative).
example(e633,f7,negative).
example(e633,f8,positive).
example(e633,f9,positive).
example(e633,f10,negative).
example(e633,f11,positive).
example(e633,f12,negative).
example(e633,f13,positive).
example(e633,f14,negative).
example(e633,f15,negative).
example(e633,f16,negative).
example(e633,f17,negative).
example(e633,f18,positive).
example(e634,f1,negative).
example(e634,f2,positive).
example(e634,f3,negative).
example(e634,f4,positive).
example(e634,f5,positive).
example(e634,f6,negative).
example(e634,f7,negative).
example(e634,f8,positive).
example(e634,f9,positive).
example(e634,f10,negative).
example(e634,f11,positive).
example(e634,f12,negative).
example(e634,f13,negative).
example(e634,f14,negative).
example(e634,f15,negative).
example(e634,f16,positive).
example(e634,f17,positive).
example(e634,f18,negative).
example(e635,f1,negative).
example(e635,f2,positive).
example(e635,f3,negative).
example(e635,f4,positive).
example(e635,f5,positive).
example(e635,f6,negative).
example(e635,f7,negative).
example(e635,f8,positive).
example(e635,f9,positive).
example(e635,f10,negative).
example(e635,f11,negative).
example(e635,f12,negative).
example(e635,f13,positive).
example(e635,f14,negative).
example(e635,f15,negative).
example(e635,f16,positive).
example(e635,f17,positive).
example(e635,f18,negative).
example(e636,f1,negative).
example(e636,f2,positive).
example(e636,f3,negative).
example(e636,f4,positive).
example(e636,f5,positive).
example(e636,f6,negative).
example(e636,f7,negative).
example(e636,f8,positive).
example(e636,f9,positive).
example(e636,f10,negative).
example(e636,f11,negative).
example(e636,f12,negative).
example(e636,f13,positive).
example(e636,f14,negative).
example(e636,f15,positive).
example(e636,f16,negative).
example(e636,f17,negative).
example(e636,f18,positive).
example(e637,f1,negative).
example(e637,f2,positive).
example(e637,f3,negative).
example(e637,f4,positive).
example(e637,f5,positive).
example(e637,f6,negative).
example(e637,f7,negative).
example(e637,f8,positive).
example(e637,f9,positive).
example(e637,f10,negative).
example(e637,f11,negative).
example(e637,f12,negative).
example(e637,f13,positive).
example(e637,f14,negative).
example(e637,f15,negative).
example(e637,f16,negative).
example(e637,f17,negative).
example(e637,f18,negative).
example(e638,f1,negative).
example(e638,f2,positive).
example(e638,f3,negative).
example(e638,f4,positive).
example(e638,f5,positive).
example(e638,f6,negative).
example(e638,f7,negative).
example(e638,f8,positive).
example(e638,f9,negative).
example(e638,f10,negative).
example(e638,f11,negative).
example(e638,f12,positive).
example(e638,f13,positive).
example(e638,f14,negative).
example(e638,f15,positive).
example(e638,f16,negative).
example(e638,f17,positive).
example(e638,f18,negative).
example(e639,f1,negative).
example(e639,f2,positive).
example(e639,f3,negative).
example(e639,f4,positive).
example(e639,f5,positive).
example(e639,f6,negative).
example(e639,f7,negative).
example(e639,f8,positive).
example(e639,f9,negative).
example(e639,f10,negative).
example(e639,f11,positive).
example(e639,f12,negative).
example(e639,f13,positive).
example(e639,f14,negative).
example(e639,f15,negative).
example(e639,f16,positive).
example(e639,f17,positive).
example(e639,f18,negative).
example(e640,f1,negative).
example(e640,f2,positive).
example(e640,f3,negative).
example(e640,f4,positive).
example(e640,f5,positive).
example(e640,f6,negative).
example(e640,f7,negative).
example(e640,f8,positive).
example(e640,f9,negative).
example(e640,f10,negative).
example(e640,f11,positive).
example(e640,f12,negative).
example(e640,f13,negative).
example(e640,f14,negative).
example(e640,f15,negative).
example(e640,f16,negative).
example(e640,f17,positive).
example(e640,f18,negative).
example(e641,f1,negative).
example(e641,f2,positive).
example(e641,f3,negative).
example(e641,f4,positive).
example(e641,f5,positive).
example(e641,f6,negative).
example(e641,f7,positive).
example(e641,f8,negative).
example(e641,f9,negative).
example(e641,f10,positive).
example(e641,f11,positive).
example(e641,f12,negative).
example(e641,f13,negative).
example(e641,f14,positive).
example(e641,f15,negative).
example(e641,f16,negative).
example(e641,f17,positive).
example(e641,f18,negative).
example(e642,f1,negative).
example(e642,f2,positive).
example(e642,f3,negative).
example(e642,f4,positive).
example(e642,f5,positive).
example(e642,f6,negative).
example(e642,f7,positive).
example(e642,f8,negative).
example(e642,f9,positive).
example(e642,f10,negative).
example(e642,f11,negative).
example(e642,f12,positive).
example(e642,f13,positive).
example(e642,f14,negative).
example(e642,f15,negative).
example(e642,f16,positive).
example(e642,f17,negative).
example(e642,f18,negative).
example(e643,f1,negative).
example(e643,f2,positive).
example(e643,f3,negative).
example(e643,f4,positive).
example(e643,f5,positive).
example(e643,f6,negative).
example(e643,f7,positive).
example(e643,f8,negative).
example(e643,f9,positive).
example(e643,f10,negative).
example(e643,f11,negative).
example(e643,f12,positive).
example(e643,f13,positive).
example(e643,f14,negative).
example(e643,f15,negative).
example(e643,f16,negative).
example(e643,f17,negative).
example(e643,f18,positive).
example(e644,f1,negative).
example(e644,f2,positive).
example(e644,f3,negative).
example(e644,f4,positive).
example(e644,f5,positive).
example(e644,f6,negative).
example(e644,f7,positive).
example(e644,f8,negative).
example(e644,f9,positive).
example(e644,f10,negative).
example(e644,f11,positive).
example(e644,f12,negative).
example(e644,f13,negative).
example(e644,f14,positive).
example(e644,f15,negative).
example(e644,f16,positive).
example(e644,f17,negative).
example(e644,f18,negative).
example(e645,f1,negative).
example(e645,f2,positive).
example(e645,f3,negative).
example(e645,f4,positive).
example(e645,f5,positive).
example(e645,f6,negative).
example(e645,f7,positive).
example(e645,f8,negative).
example(e645,f9,positive).
example(e645,f10,negative).
example(e645,f11,positive).
example(e645,f12,negative).
example(e645,f13,negative).
example(e645,f14,positive).
example(e645,f15,negative).
example(e645,f16,negative).
example(e645,f17,negative).
example(e645,f18,positive).
example(e646,f1,negative).
example(e646,f2,positive).
example(e646,f3,negative).
example(e646,f4,positive).
example(e646,f5,positive).
example(e646,f6,negative).
example(e646,f7,positive).
example(e646,f8,negative).
example(e646,f9,positive).
example(e646,f10,negative).
example(e646,f11,positive).
example(e646,f12,negative).
example(e646,f13,negative).
example(e646,f14,negative).
example(e646,f15,negative).
example(e646,f16,positive).
example(e646,f17,negative).
example(e646,f18,positive).
example(e647,f1,negative).
example(e647,f2,positive).
example(e647,f3,negative).
example(e647,f4,positive).
example(e647,f5,positive).
example(e647,f6,negative).
example(e647,f7,positive).
example(e647,f8,negative).
example(e647,f9,positive).
example(e647,f10,negative).
example(e647,f11,negative).
example(e647,f12,negative).
example(e647,f13,positive).
example(e647,f14,negative).
example(e647,f15,negative).
example(e647,f16,positive).
example(e647,f17,negative).
example(e647,f18,positive).
example(e648,f1,negative).
example(e648,f2,positive).
example(e648,f3,negative).
example(e648,f4,positive).
example(e648,f5,positive).
example(e648,f6,negative).
example(e648,f7,positive).
example(e648,f8,negative).
example(e648,f9,negative).
example(e648,f10,negative).
example(e648,f11,positive).
example(e648,f12,negative).
example(e648,f13,negative).
example(e648,f14,positive).
example(e648,f15,negative).
example(e648,f16,positive).
example(e648,f17,positive).
example(e648,f18,negative).
example(e649,f1,negative).
example(e649,f2,positive).
example(e649,f3,negative).
example(e649,f4,positive).
example(e649,f5,positive).
example(e649,f6,negative).
example(e649,f7,negative).
example(e649,f8,negative).
example(e649,f9,negative).
example(e649,f10,positive).
example(e649,f11,negative).
example(e649,f12,positive).
example(e649,f13,positive).
example(e649,f14,negative).
example(e649,f15,positive).
example(e649,f16,negative).
example(e649,f17,positive).
example(e649,f18,negative).
example(e650,f1,negative).
example(e650,f2,positive).
example(e650,f3,negative).
example(e650,f4,positive).
example(e650,f5,positive).
example(e650,f6,negative).
example(e650,f7,negative).
example(e650,f8,negative).
example(e650,f9,negative).
example(e650,f10,positive).
example(e650,f11,positive).
example(e650,f12,negative).
example(e650,f13,negative).
example(e650,f14,positive).
example(e650,f15,positive).
example(e650,f16,negative).
example(e650,f17,positive).
example(e650,f18,negative).
example(e651,f1,negative).
example(e651,f2,positive).
example(e651,f3,negative).
example(e651,f4,positive).
example(e651,f5,positive).
example(e651,f6,negative).
example(e651,f7,negative).
example(e651,f8,negative).
example(e651,f9,negative).
example(e651,f10,positive).
example(e651,f11,positive).
example(e651,f12,negative).
example(e651,f13,negative).
example(e651,f14,negative).
example(e651,f15,negative).
example(e651,f16,negative).
example(e651,f17,positive).
example(e651,f18,negative).
example(e652,f1,negative).
example(e652,f2,positive).
example(e652,f3,negative).
example(e652,f4,positive).
example(e652,f5,positive).
example(e652,f6,negative).
example(e652,f7,negative).
example(e652,f8,negative).
example(e652,f9,positive).
example(e652,f10,negative).
example(e652,f11,negative).
example(e652,f12,positive).
example(e652,f13,positive).
example(e652,f14,negative).
example(e652,f15,negative).
example(e652,f16,positive).
example(e652,f17,positive).
example(e652,f18,negative).
example(e653,f1,negative).
example(e653,f2,positive).
example(e653,f3,negative).
example(e653,f4,positive).
example(e653,f5,positive).
example(e653,f6,negative).
example(e653,f7,negative).
example(e653,f8,negative).
example(e653,f9,positive).
example(e653,f10,negative).
example(e653,f11,negative).
example(e653,f12,positive).
example(e653,f13,positive).
example(e653,f14,negative).
example(e653,f15,positive).
example(e653,f16,negative).
example(e653,f17,negative).
example(e653,f18,positive).
example(e654,f1,negative).
example(e654,f2,positive).
example(e654,f3,negative).
example(e654,f4,positive).
example(e654,f5,positive).
example(e654,f6,negative).
example(e654,f7,negative).
example(e654,f8,negative).
example(e654,f9,positive).
example(e654,f10,negative).
example(e654,f11,negative).
example(e654,f12,positive).
example(e654,f13,positive).
example(e654,f14,negative).
example(e654,f15,negative).
example(e654,f16,negative).
example(e654,f17,negative).
example(e654,f18,negative).
example(e655,f1,negative).
example(e655,f2,positive).
example(e655,f3,negative).
example(e655,f4,positive).
example(e655,f5,positive).
example(e655,f6,negative).
example(e655,f7,negative).
example(e655,f8,negative).
example(e655,f9,positive).
example(e655,f10,negative).
example(e655,f11,positive).
example(e655,f12,negative).
example(e655,f13,negative).
example(e655,f14,positive).
example(e655,f15,negative).
example(e655,f16,positive).
example(e655,f17,positive).
example(e655,f18,negative).
example(e656,f1,negative).
example(e656,f2,positive).
example(e656,f3,negative).
example(e656,f4,positive).
example(e656,f5,positive).
example(e656,f6,negative).
example(e656,f7,negative).
example(e656,f8,negative).
example(e656,f9,positive).
example(e656,f10,negative).
example(e656,f11,positive).
example(e656,f12,negative).
example(e656,f13,positive).
example(e656,f14,negative).
example(e656,f15,negative).
example(e656,f16,positive).
example(e656,f17,negative).
example(e656,f18,positive).
example(e657,f1,negative).
example(e657,f2,positive).
example(e657,f3,negative).
example(e657,f4,positive).
example(e657,f5,positive).
example(e657,f6,negative).
example(e657,f7,negative).
example(e657,f8,negative).
example(e657,f9,positive).
example(e657,f10,negative).
example(e657,f11,negative).
example(e657,f12,negative).
example(e657,f13,positive).
example(e657,f14,negative).
example(e657,f15,negative).
example(e657,f16,positive).
example(e657,f17,negative).
example(e657,f18,negative).
example(e658,f1,negative).
example(e658,f2,positive).
example(e658,f3,negative).
example(e658,f4,positive).
example(e658,f5,positive).
example(e658,f6,negative).
example(e658,f7,negative).
example(e658,f8,negative).
example(e658,f9,positive).
example(e658,f10,negative).
example(e658,f11,negative).
example(e658,f12,negative).
example(e658,f13,positive).
example(e658,f14,negative).
example(e658,f15,negative).
example(e658,f16,negative).
example(e658,f17,negative).
example(e658,f18,positive).
example(e659,f1,negative).
example(e659,f2,positive).
example(e659,f3,negative).
example(e659,f4,positive).
example(e659,f5,positive).
example(e659,f6,negative).
example(e659,f7,negative).
example(e659,f8,negative).
example(e659,f9,negative).
example(e659,f10,negative).
example(e659,f11,positive).
example(e659,f12,negative).
example(e659,f13,negative).
example(e659,f14,positive).
example(e659,f15,negative).
example(e659,f16,negative).
example(e659,f17,positive).
example(e659,f18,negative).
example(e660,f1,negative).
example(e660,f2,positive).
example(e660,f3,negative).
example(e660,f4,positive).
example(e660,f5,positive).
example(e660,f6,negative).
example(e660,f7,negative).
example(e660,f8,negative).
example(e660,f9,negative).
example(e660,f10,negative).
example(e660,f11,positive).
example(e660,f12,negative).
example(e660,f13,negative).
example(e660,f14,negative).
example(e660,f15,negative).
example(e660,f16,positive).
example(e660,f17,positive).
example(e660,f18,negative).
example(e661,f1,negative).
example(e661,f2,positive).
example(e661,f3,negative).
example(e661,f4,positive).
example(e661,f5,negative).
example(e661,f6,negative).
example(e661,f7,negative).
example(e661,f8,positive).
example(e661,f9,negative).
example(e661,f10,positive).
example(e661,f11,positive).
example(e661,f12,negative).
example(e661,f13,positive).
example(e661,f14,negative).
example(e661,f15,positive).
example(e661,f16,negative).
example(e661,f17,positive).
example(e661,f18,negative).
example(e662,f1,negative).
example(e662,f2,positive).
example(e662,f3,negative).
example(e662,f4,positive).
example(e662,f5,negative).
example(e662,f6,negative).
example(e662,f7,negative).
example(e662,f8,positive).
example(e662,f9,positive).
example(e662,f10,negative).
example(e662,f11,negative).
example(e662,f12,positive).
example(e662,f13,positive).
example(e662,f14,negative).
example(e662,f15,positive).
example(e662,f16,negative).
example(e662,f17,positive).
example(e662,f18,negative).
example(e663,f1,negative).
example(e663,f2,positive).
example(e663,f3,negative).
example(e663,f4,positive).
example(e663,f5,negative).
example(e663,f6,negative).
example(e663,f7,negative).
example(e663,f8,positive).
example(e663,f9,negative).
example(e663,f10,negative).
example(e663,f11,negative).
example(e663,f12,negative).
example(e663,f13,positive).
example(e663,f14,negative).
example(e663,f15,positive).
example(e663,f16,negative).
example(e663,f17,positive).
example(e663,f18,negative).
example(e664,f1,negative).
example(e664,f2,positive).
example(e664,f3,negative).
example(e664,f4,positive).
example(e664,f5,negative).
example(e664,f6,negative).
example(e664,f7,positive).
example(e664,f8,negative).
example(e664,f9,negative).
example(e664,f10,positive).
example(e664,f11,negative).
example(e664,f12,positive).
example(e664,f13,positive).
example(e664,f14,negative).
example(e664,f15,positive).
example(e664,f16,negative).
example(e664,f17,positive).
example(e664,f18,negative).
example(e665,f1,negative).
example(e665,f2,positive).
example(e665,f3,negative).
example(e665,f4,positive).
example(e665,f5,negative).
example(e665,f6,negative).
example(e665,f7,positive).
example(e665,f8,negative).
example(e665,f9,positive).
example(e665,f10,negative).
example(e665,f11,positive).
example(e665,f12,negative).
example(e665,f13,negative).
example(e665,f14,positive).
example(e665,f15,negative).
example(e665,f16,positive).
example(e665,f17,positive).
example(e665,f18,negative).
example(e666,f1,negative).
example(e666,f2,positive).
example(e666,f3,negative).
example(e666,f4,positive).
example(e666,f5,negative).
example(e666,f6,negative).
example(e666,f7,positive).
example(e666,f8,negative).
example(e666,f9,positive).
example(e666,f10,negative).
example(e666,f11,positive).
example(e666,f12,negative).
example(e666,f13,negative).
example(e666,f14,positive).
example(e666,f15,positive).
example(e666,f16,negative).
example(e666,f17,negative).
example(e666,f18,positive).
example(e667,f1,negative).
example(e667,f2,positive).
example(e667,f3,negative).
example(e667,f4,positive).
example(e667,f5,negative).
example(e667,f6,negative).
example(e667,f7,positive).
example(e667,f8,negative).
example(e667,f9,positive).
example(e667,f10,negative).
example(e667,f11,positive).
example(e667,f12,negative).
example(e667,f13,negative).
example(e667,f14,positive).
example(e667,f15,negative).
example(e667,f16,negative).
example(e667,f17,negative).
example(e667,f18,negative).
example(e668,f1,negative).
example(e668,f2,positive).
example(e668,f3,negative).
example(e668,f4,positive).
example(e668,f5,negative).
example(e668,f6,negative).
example(e668,f7,positive).
example(e668,f8,negative).
example(e668,f9,positive).
example(e668,f10,negative).
example(e668,f11,positive).
example(e668,f12,negative).
example(e668,f13,positive).
example(e668,f14,negative).
example(e668,f15,negative).
example(e668,f16,positive).
example(e668,f17,negative).
example(e668,f18,positive).
example(e669,f1,negative).
example(e669,f2,positive).
example(e669,f3,negative).
example(e669,f4,positive).
example(e669,f5,negative).
example(e669,f6,negative).
example(e669,f7,positive).
example(e669,f8,negative).
example(e669,f9,positive).
example(e669,f10,negative).
example(e669,f11,positive).
example(e669,f12,negative).
example(e669,f13,negative).
example(e669,f14,negative).
example(e669,f15,negative).
example(e669,f16,positive).
example(e669,f17,negative).
example(e669,f18,negative).
example(e670,f1,negative).
example(e670,f2,positive).
example(e670,f3,negative).
example(e670,f4,positive).
example(e670,f5,negative).
example(e670,f6,negative).
example(e670,f7,positive).
example(e670,f8,negative).
example(e670,f9,positive).
example(e670,f10,negative).
example(e670,f11,positive).
example(e670,f12,negative).
example(e670,f13,negative).
example(e670,f14,negative).
example(e670,f15,negative).
example(e670,f16,negative).
example(e670,f17,negative).
example(e670,f18,positive).
example(e671,f1,negative).
example(e671,f2,positive).
example(e671,f3,negative).
example(e671,f4,positive).
example(e671,f5,negative).
example(e671,f6,negative).
example(e671,f7,negative).
example(e671,f8,negative).
example(e671,f9,negative).
example(e671,f10,positive).
example(e671,f11,negative).
example(e671,f12,negative).
example(e671,f13,positive).
example(e671,f14,negative).
example(e671,f15,positive).
example(e671,f16,negative).
example(e671,f17,positive).
example(e671,f18,negative).
example(e672,f1,negative).
example(e672,f2,positive).
example(e672,f3,negative).
example(e672,f4,positive).
example(e672,f5,negative).
example(e672,f6,negative).
example(e672,f7,negative).
example(e672,f8,negative).
example(e672,f9,negative).
example(e672,f10,negative).
example(e672,f11,negative).
example(e672,f12,positive).
example(e672,f13,positive).
example(e672,f14,negative).
example(e672,f15,positive).
example(e672,f16,negative).
example(e672,f17,positive).
example(e672,f18,negative).
example(e673,f1,negative).
example(e673,f2,positive).
example(e673,f3,positive).
example(e673,f4,negative).
example(e673,f5,negative).
example(e673,f6,positive).
example(e673,f7,negative).
example(e673,f8,positive).
example(e673,f9,negative).
example(e673,f10,positive).
example(e673,f11,negative).
example(e673,f12,negative).
example(e673,f13,positive).
example(e673,f14,negative).
example(e673,f15,positive).
example(e673,f16,negative).
example(e673,f17,positive).
example(e673,f18,negative).
example(e674,f1,negative).
example(e674,f2,positive).
example(e674,f3,positive).
example(e674,f4,negative).
example(e674,f5,negative).
example(e674,f6,positive).
example(e674,f7,negative).
example(e674,f8,positive).
example(e674,f9,positive).
example(e674,f10,negative).
example(e674,f11,negative).
example(e674,f12,positive).
example(e674,f13,positive).
example(e674,f14,negative).
example(e674,f15,positive).
example(e674,f16,negative).
example(e674,f17,negative).
example(e674,f18,negative).
example(e675,f1,negative).
example(e675,f2,positive).
example(e675,f3,positive).
example(e675,f4,negative).
example(e675,f5,negative).
example(e675,f6,positive).
example(e675,f7,negative).
example(e675,f8,positive).
example(e675,f9,positive).
example(e675,f10,negative).
example(e675,f11,negative).
example(e675,f12,positive).
example(e675,f13,negative).
example(e675,f14,negative).
example(e675,f15,positive).
example(e675,f16,negative).
example(e675,f17,positive).
example(e675,f18,negative).
example(e676,f1,negative).
example(e676,f2,positive).
example(e676,f3,positive).
example(e676,f4,negative).
example(e676,f5,negative).
example(e676,f6,positive).
example(e676,f7,negative).
example(e676,f8,positive).
example(e676,f9,positive).
example(e676,f10,negative).
example(e676,f11,positive).
example(e676,f12,negative).
example(e676,f13,negative).
example(e676,f14,negative).
example(e676,f15,positive).
example(e676,f16,negative).
example(e676,f17,negative).
example(e676,f18,positive).
example(e677,f1,negative).
example(e677,f2,positive).
example(e677,f3,positive).
example(e677,f4,negative).
example(e677,f5,negative).
example(e677,f6,positive).
example(e677,f7,negative).
example(e677,f8,positive).
example(e677,f9,positive).
example(e677,f10,negative).
example(e677,f11,negative).
example(e677,f12,negative).
example(e677,f13,positive).
example(e677,f14,negative).
example(e677,f15,positive).
example(e677,f16,negative).
example(e677,f17,negative).
example(e677,f18,positive).
example(e678,f1,negative).
example(e678,f2,positive).
example(e678,f3,positive).
example(e678,f4,negative).
example(e678,f5,negative).
example(e678,f6,positive).
example(e678,f7,negative).
example(e678,f8,positive).
example(e678,f9,positive).
example(e678,f10,negative).
example(e678,f11,negative).
example(e678,f12,negative).
example(e678,f13,negative).
example(e678,f14,negative).
example(e678,f15,positive).
example(e678,f16,negative).
example(e678,f17,negative).
example(e678,f18,negative).
example(e679,f1,negative).
example(e679,f2,positive).
example(e679,f3,positive).
example(e679,f4,negative).
example(e679,f5,negative).
example(e679,f6,positive).
example(e679,f7,negative).
example(e679,f8,positive).
example(e679,f9,negative).
example(e679,f10,negative).
example(e679,f11,negative).
example(e679,f12,positive).
example(e679,f13,positive).
example(e679,f14,negative).
example(e679,f15,positive).
example(e679,f16,negative).
example(e679,f17,positive).
example(e679,f18,negative).
example(e680,f1,negative).
example(e680,f2,positive).
example(e680,f3,positive).
example(e680,f4,negative).
example(e680,f5,negative).
example(e680,f6,positive).
example(e680,f7,positive).
example(e680,f8,negative).
example(e680,f9,positive).
example(e680,f10,negative).
example(e680,f11,negative).
example(e680,f12,positive).
example(e680,f13,negative).
example(e680,f14,positive).
example(e680,f15,positive).
example(e680,f16,negative).
example(e680,f17,negative).
example(e680,f18,negative).
example(e681,f1,negative).
example(e681,f2,positive).
example(e681,f3,positive).
example(e681,f4,negative).
example(e681,f5,negative).
example(e681,f6,positive).
example(e681,f7,positive).
example(e681,f8,negative).
example(e681,f9,positive).
example(e681,f10,negative).
example(e681,f11,positive).
example(e681,f12,negative).
example(e681,f13,negative).
example(e681,f14,positive).
example(e681,f15,negative).
example(e681,f16,positive).
example(e681,f17,negative).
example(e681,f18,negative).
example(e682,f1,negative).
example(e682,f2,positive).
example(e682,f3,positive).
example(e682,f4,negative).
example(e682,f5,negative).
example(e682,f6,positive).
example(e682,f7,positive).
example(e682,f8,negative).
example(e682,f9,positive).
example(e682,f10,negative).
example(e682,f11,positive).
example(e682,f12,negative).
example(e682,f13,negative).
example(e682,f14,positive).
example(e682,f15,negative).
example(e682,f16,negative).
example(e682,f17,negative).
example(e682,f18,positive).
example(e683,f1,negative).
example(e683,f2,positive).
example(e683,f3,positive).
example(e683,f4,negative).
example(e683,f5,negative).
example(e683,f6,positive).
example(e683,f7,positive).
example(e683,f8,negative).
example(e683,f9,positive).
example(e683,f10,negative).
example(e683,f11,positive).
example(e683,f12,negative).
example(e683,f13,negative).
example(e683,f14,negative).
example(e683,f15,negative).
example(e683,f16,positive).
example(e683,f17,negative).
example(e683,f18,positive).
example(e684,f1,negative).
example(e684,f2,positive).
example(e684,f3,positive).
example(e684,f4,negative).
example(e684,f5,negative).
example(e684,f6,positive).
example(e684,f7,positive).
example(e684,f8,negative).
example(e684,f9,positive).
example(e684,f10,negative).
example(e684,f11,negative).
example(e684,f12,negative).
example(e684,f13,negative).
example(e684,f14,positive).
example(e684,f15,positive).
example(e684,f16,negative).
example(e684,f17,negative).
example(e684,f18,positive).
example(e685,f1,negative).
example(e685,f2,positive).
example(e685,f3,positive).
example(e685,f4,negative).
example(e685,f5,negative).
example(e685,f6,positive).
example(e685,f7,negative).
example(e685,f8,negative).
example(e685,f9,negative).
example(e685,f10,positive).
example(e685,f11,negative).
example(e685,f12,positive).
example(e685,f13,positive).
example(e685,f14,negative).
example(e685,f15,positive).
example(e685,f16,negative).
example(e685,f17,positive).
example(e685,f18,negative).
example(e686,f1,negative).
example(e686,f2,positive).
example(e686,f3,positive).
example(e686,f4,negative).
example(e686,f5,negative).
example(e686,f6,positive).
example(e686,f7,negative).
example(e686,f8,negative).
example(e686,f9,positive).
example(e686,f10,negative).
example(e686,f11,negative).
example(e686,f12,positive).
example(e686,f13,negative).
example(e686,f14,positive).
example(e686,f15,positive).
example(e686,f16,negative).
example(e686,f17,positive).
example(e686,f18,negative).
example(e687,f1,negative).
example(e687,f2,positive).
example(e687,f3,positive).
example(e687,f4,negative).
example(e687,f5,negative).
example(e687,f6,positive).
example(e687,f7,negative).
example(e687,f8,negative).
example(e687,f9,positive).
example(e687,f10,negative).
example(e687,f11,negative).
example(e687,f12,positive).
example(e687,f13,negative).
example(e687,f14,negative).
example(e687,f15,positive).
example(e687,f16,negative).
example(e687,f17,negative).
example(e687,f18,negative).
example(e688,f1,negative).
example(e688,f2,positive).
example(e688,f3,positive).
example(e688,f4,negative).
example(e688,f5,negative).
example(e688,f6,positive).
example(e688,f7,negative).
example(e688,f8,negative).
example(e688,f9,positive).
example(e688,f10,negative).
example(e688,f11,positive).
example(e688,f12,negative).
example(e688,f13,negative).
example(e688,f14,positive).
example(e688,f15,positive).
example(e688,f16,negative).
example(e688,f17,negative).
example(e688,f18,positive).
example(e689,f1,negative).
example(e689,f2,positive).
example(e689,f3,positive).
example(e689,f4,negative).
example(e689,f5,negative).
example(e689,f6,positive).
example(e689,f7,negative).
example(e689,f8,negative).
example(e689,f9,positive).
example(e689,f10,negative).
example(e689,f11,negative).
example(e689,f12,negative).
example(e689,f13,negative).
example(e689,f14,positive).
example(e689,f15,positive).
example(e689,f16,negative).
example(e689,f17,negative).
example(e689,f18,negative).
example(e690,f1,negative).
example(e690,f2,positive).
example(e690,f3,positive).
example(e690,f4,negative).
example(e690,f5,negative).
example(e690,f6,positive).
example(e690,f7,negative).
example(e690,f8,negative).
example(e690,f9,positive).
example(e690,f10,negative).
example(e690,f11,negative).
example(e690,f12,negative).
example(e690,f13,negative).
example(e690,f14,negative).
example(e690,f15,positive).
example(e690,f16,negative).
example(e690,f17,negative).
example(e690,f18,positive).
example(e691,f1,negative).
example(e691,f2,positive).
example(e691,f3,positive).
example(e691,f4,negative).
example(e691,f5,positive).
example(e691,f6,negative).
example(e691,f7,negative).
example(e691,f8,positive).
example(e691,f9,negative).
example(e691,f10,positive).
example(e691,f11,positive).
example(e691,f12,negative).
example(e691,f13,negative).
example(e691,f14,negative).
example(e691,f15,negative).
example(e691,f16,positive).
example(e691,f17,positive).
example(e691,f18,negative).
example(e692,f1,negative).
example(e692,f2,positive).
example(e692,f3,positive).
example(e692,f4,negative).
example(e692,f5,positive).
example(e692,f6,negative).
example(e692,f7,negative).
example(e692,f8,positive).
example(e692,f9,positive).
example(e692,f10,negative).
example(e692,f11,negative).
example(e692,f12,positive).
example(e692,f13,positive).
example(e692,f14,negative).
example(e692,f15,negative).
example(e692,f16,positive).
example(e692,f17,negative).
example(e692,f18,negative).
example(e693,f1,negative).
example(e693,f2,positive).
example(e693,f3,positive).
example(e693,f4,negative).
example(e693,f5,positive).
example(e693,f6,negative).
example(e693,f7,negative).
example(e693,f8,positive).
example(e693,f9,positive).
example(e693,f10,negative).
example(e693,f11,negative).
example(e693,f12,positive).
example(e693,f13,positive).
example(e693,f14,negative).
example(e693,f15,negative).
example(e693,f16,negative).
example(e693,f17,negative).
example(e693,f18,positive).
example(e694,f1,negative).
example(e694,f2,positive).
example(e694,f3,positive).
example(e694,f4,negative).
example(e694,f5,positive).
example(e694,f6,negative).
example(e694,f7,negative).
example(e694,f8,positive).
example(e694,f9,positive).
example(e694,f10,negative).
example(e694,f11,negative).
example(e694,f12,positive).
example(e694,f13,negative).
example(e694,f14,negative).
example(e694,f15,positive).
example(e694,f16,negative).
example(e694,f17,negative).
example(e694,f18,positive).
example(e695,f1,negative).
example(e695,f2,positive).
example(e695,f3,positive).
example(e695,f4,negative).
example(e695,f5,positive).
example(e695,f6,negative).
example(e695,f7,negative).
example(e695,f8,positive).
example(e695,f9,positive).
example(e695,f10,negative).
example(e695,f11,negative).
example(e695,f12,negative).
example(e695,f13,positive).
example(e695,f14,negative).
example(e695,f15,negative).
example(e695,f16,positive).
example(e695,f17,negative).
example(e695,f18,positive).
example(e696,f1,negative).
example(e696,f2,positive).
example(e696,f3,positive).
example(e696,f4,negative).
example(e696,f5,positive).
example(e696,f6,negative).
example(e696,f7,negative).
example(e696,f8,negative).
example(e696,f9,negative).
example(e696,f10,positive).
example(e696,f11,positive).
example(e696,f12,negative).
example(e696,f13,negative).
example(e696,f14,positive).
example(e696,f15,negative).
example(e696,f16,positive).
example(e696,f17,positive).
example(e696,f18,negative).
example(e697,f1,negative).
example(e697,f2,positive).
example(e697,f3,positive).
example(e697,f4,negative).
example(e697,f5,positive).
example(e697,f6,negative).
example(e697,f7,negative).
example(e697,f8,negative).
example(e697,f9,positive).
example(e697,f10,negative).
example(e697,f11,negative).
example(e697,f12,positive).
example(e697,f13,negative).
example(e697,f14,positive).
example(e697,f15,positive).
example(e697,f16,negative).
example(e697,f17,negative).
example(e697,f18,positive).
example(e698,f1,negative).
example(e698,f2,positive).
example(e698,f3,positive).
example(e698,f4,negative).
example(e698,f5,positive).
example(e698,f6,negative).
example(e698,f7,negative).
example(e698,f8,negative).
example(e698,f9,positive).
example(e698,f10,negative).
example(e698,f11,negative).
example(e698,f12,positive).
example(e698,f13,positive).
example(e698,f14,negative).
example(e698,f15,negative).
example(e698,f16,positive).
example(e698,f17,negative).
example(e698,f18,positive).
example(e699,f1,negative).
example(e699,f2,positive).
example(e699,f3,positive).
example(e699,f4,negative).
example(e699,f5,negative).
example(e699,f6,negative).
example(e699,f7,negative).
example(e699,f8,positive).
example(e699,f9,positive).
example(e699,f10,negative).
example(e699,f11,negative).
example(e699,f12,positive).
example(e699,f13,positive).
example(e699,f14,negative).
example(e699,f15,positive).
example(e699,f16,negative).
example(e699,f17,negative).
example(e699,f18,positive).
example(e700,f1,negative).
example(e700,f2,positive).
example(e700,f3,positive).
example(e700,f4,negative).
example(e700,f5,negative).
example(e700,f6,negative).
example(e700,f7,negative).
example(e700,f8,positive).
example(e700,f9,positive).
example(e700,f10,negative).
example(e700,f11,negative).
example(e700,f12,positive).
example(e700,f13,negative).
example(e700,f14,negative).
example(e700,f15,positive).
example(e700,f16,negative).
example(e700,f17,negative).
example(e700,f18,negative).
example(e701,f1,negative).
example(e701,f2,positive).
example(e701,f3,positive).
example(e701,f4,negative).
example(e701,f5,negative).
example(e701,f6,negative).
example(e701,f7,negative).
example(e701,f8,positive).
example(e701,f9,positive).
example(e701,f10,negative).
example(e701,f11,negative).
example(e701,f12,negative).
example(e701,f13,negative).
example(e701,f14,negative).
example(e701,f15,positive).
example(e701,f16,negative).
example(e701,f17,negative).
example(e701,f18,positive).
example(e702,f1,negative).
example(e702,f2,positive).
example(e702,f3,positive).
example(e702,f4,negative).
example(e702,f5,negative).
example(e702,f6,negative).
example(e702,f7,positive).
example(e702,f8,negative).
example(e702,f9,positive).
example(e702,f10,negative).
example(e702,f11,negative).
example(e702,f12,positive).
example(e702,f13,negative).
example(e702,f14,positive).
example(e702,f15,positive).
example(e702,f16,negative).
example(e702,f17,negative).
example(e702,f18,positive).
example(e703,f1,negative).
example(e703,f2,positive).
example(e703,f3,positive).
example(e703,f4,negative).
example(e703,f5,negative).
example(e703,f6,negative).
example(e703,f7,negative).
example(e703,f8,negative).
example(e703,f9,positive).
example(e703,f10,negative).
example(e703,f11,negative).
example(e703,f12,positive).
example(e703,f13,negative).
example(e703,f14,positive).
example(e703,f15,positive).
example(e703,f16,negative).
example(e703,f17,negative).
example(e703,f18,negative).
example(e704,f1,negative).
example(e704,f2,positive).
example(e704,f3,positive).
example(e704,f4,negative).
example(e704,f5,negative).
example(e704,f6,negative).
example(e704,f7,negative).
example(e704,f8,negative).
example(e704,f9,positive).
example(e704,f10,negative).
example(e704,f11,negative).
example(e704,f12,positive).
example(e704,f13,negative).
example(e704,f14,negative).
example(e704,f15,positive).
example(e704,f16,negative).
example(e704,f17,negative).
example(e704,f18,positive).
example(e705,f1,negative).
example(e705,f2,positive).
example(e705,f3,positive).
example(e705,f4,negative).
example(e705,f5,negative).
example(e705,f6,negative).
example(e705,f7,negative).
example(e705,f8,negative).
example(e705,f9,positive).
example(e705,f10,negative).
example(e705,f11,negative).
example(e705,f12,negative).
example(e705,f13,negative).
example(e705,f14,positive).
example(e705,f15,positive).
example(e705,f16,negative).
example(e705,f17,negative).
example(e705,f18,positive).
example(e706,f1,negative).
example(e706,f2,positive).
example(e706,f3,negative).
example(e706,f4,negative).
example(e706,f5,negative).
example(e706,f6,positive).
example(e706,f7,negative).
example(e706,f8,positive).
example(e706,f9,negative).
example(e706,f10,positive).
example(e706,f11,positive).
example(e706,f12,negative).
example(e706,f13,positive).
example(e706,f14,negative).
example(e706,f15,positive).
example(e706,f16,negative).
example(e706,f17,positive).
example(e706,f18,negative).
example(e707,f1,negative).
example(e707,f2,positive).
example(e707,f3,negative).
example(e707,f4,negative).
example(e707,f5,negative).
example(e707,f6,positive).
example(e707,f7,negative).
example(e707,f8,positive).
example(e707,f9,positive).
example(e707,f10,negative).
example(e707,f11,negative).
example(e707,f12,positive).
example(e707,f13,positive).
example(e707,f14,negative).
example(e707,f15,positive).
example(e707,f16,negative).
example(e707,f17,positive).
example(e707,f18,negative).
example(e708,f1,negative).
example(e708,f2,positive).
example(e708,f3,negative).
example(e708,f4,negative).
example(e708,f5,negative).
example(e708,f6,positive).
example(e708,f7,negative).
example(e708,f8,positive).
example(e708,f9,negative).
example(e708,f10,negative).
example(e708,f11,negative).
example(e708,f12,negative).
example(e708,f13,positive).
example(e708,f14,negative).
example(e708,f15,positive).
example(e708,f16,negative).
example(e708,f17,positive).
example(e708,f18,negative).
example(e709,f1,negative).
example(e709,f2,positive).
example(e709,f3,negative).
example(e709,f4,negative).
example(e709,f5,negative).
example(e709,f6,positive).
example(e709,f7,positive).
example(e709,f8,negative).
example(e709,f9,negative).
example(e709,f10,positive).
example(e709,f11,negative).
example(e709,f12,positive).
example(e709,f13,positive).
example(e709,f14,negative).
example(e709,f15,positive).
example(e709,f16,negative).
example(e709,f17,positive).
example(e709,f18,negative).
example(e710,f1,negative).
example(e710,f2,positive).
example(e710,f3,negative).
example(e710,f4,negative).
example(e710,f5,negative).
example(e710,f6,positive).
example(e710,f7,positive).
example(e710,f8,negative).
example(e710,f9,positive).
example(e710,f10,negative).
example(e710,f11,positive).
example(e710,f12,negative).
example(e710,f13,negative).
example(e710,f14,positive).
example(e710,f15,negative).
example(e710,f16,positive).
example(e710,f17,positive).
example(e710,f18,negative).
example(e711,f1,negative).
example(e711,f2,positive).
example(e711,f3,negative).
example(e711,f4,negative).
example(e711,f5,negative).
example(e711,f6,positive).
example(e711,f7,positive).
example(e711,f8,negative).
example(e711,f9,positive).
example(e711,f10,negative).
example(e711,f11,positive).
example(e711,f12,negative).
example(e711,f13,negative).
example(e711,f14,positive).
example(e711,f15,positive).
example(e711,f16,negative).
example(e711,f17,negative).
example(e711,f18,positive).
example(e712,f1,negative).
example(e712,f2,positive).
example(e712,f3,negative).
example(e712,f4,negative).
example(e712,f5,negative).
example(e712,f6,positive).
example(e712,f7,positive).
example(e712,f8,negative).
example(e712,f9,positive).
example(e712,f10,negative).
example(e712,f11,positive).
example(e712,f12,negative).
example(e712,f13,negative).
example(e712,f14,positive).
example(e712,f15,negative).
example(e712,f16,negative).
example(e712,f17,negative).
example(e712,f18,negative).
example(e713,f1,negative).
example(e713,f2,positive).
example(e713,f3,negative).
example(e713,f4,negative).
example(e713,f5,negative).
example(e713,f6,positive).
example(e713,f7,positive).
example(e713,f8,negative).
example(e713,f9,positive).
example(e713,f10,negative).
example(e713,f11,positive).
example(e713,f12,negative).
example(e713,f13,positive).
example(e713,f14,negative).
example(e713,f15,negative).
example(e713,f16,positive).
example(e713,f17,negative).
example(e713,f18,positive).
example(e714,f1,negative).
example(e714,f2,positive).
example(e714,f3,negative).
example(e714,f4,negative).
example(e714,f5,negative).
example(e714,f6,positive).
example(e714,f7,positive).
example(e714,f8,negative).
example(e714,f9,positive).
example(e714,f10,negative).
example(e714,f11,positive).
example(e714,f12,negative).
example(e714,f13,negative).
example(e714,f14,negative).
example(e714,f15,negative).
example(e714,f16,positive).
example(e714,f17,negative).
example(e714,f18,negative).
example(e715,f1,negative).
example(e715,f2,positive).
example(e715,f3,negative).
example(e715,f4,negative).
example(e715,f5,negative).
example(e715,f6,positive).
example(e715,f7,positive).
example(e715,f8,negative).
example(e715,f9,positive).
example(e715,f10,negative).
example(e715,f11,positive).
example(e715,f12,negative).
example(e715,f13,negative).
example(e715,f14,negative).
example(e715,f15,negative).
example(e715,f16,negative).
example(e715,f17,negative).
example(e715,f18,positive).
example(e716,f1,negative).
example(e716,f2,positive).
example(e716,f3,negative).
example(e716,f4,negative).
example(e716,f5,negative).
example(e716,f6,positive).
example(e716,f7,negative).
example(e716,f8,negative).
example(e716,f9,negative).
example(e716,f10,positive).
example(e716,f11,negative).
example(e716,f12,negative).
example(e716,f13,positive).
example(e716,f14,negative).
example(e716,f15,positive).
example(e716,f16,negative).
example(e716,f17,positive).
example(e716,f18,negative).
example(e717,f1,negative).
example(e717,f2,positive).
example(e717,f3,negative).
example(e717,f4,negative).
example(e717,f5,negative).
example(e717,f6,positive).
example(e717,f7,negative).
example(e717,f8,negative).
example(e717,f9,negative).
example(e717,f10,negative).
example(e717,f11,negative).
example(e717,f12,positive).
example(e717,f13,positive).
example(e717,f14,negative).
example(e717,f15,positive).
example(e717,f16,negative).
example(e717,f17,positive).
example(e717,f18,negative).
example(e718,f1,negative).
example(e718,f2,positive).
example(e718,f3,negative).
example(e718,f4,negative).
example(e718,f5,positive).
example(e718,f6,negative).
example(e718,f7,negative).
example(e718,f8,positive).
example(e718,f9,negative).
example(e718,f10,positive).
example(e718,f11,positive).
example(e718,f12,negative).
example(e718,f13,positive).
example(e718,f14,negative).
example(e718,f15,negative).
example(e718,f16,positive).
example(e718,f17,positive).
example(e718,f18,negative).
example(e719,f1,negative).
example(e719,f2,positive).
example(e719,f3,negative).
example(e719,f4,negative).
example(e719,f5,positive).
example(e719,f6,negative).
example(e719,f7,negative).
example(e719,f8,positive).
example(e719,f9,negative).
example(e719,f10,positive).
example(e719,f11,positive).
example(e719,f12,negative).
example(e719,f13,negative).
example(e719,f14,negative).
example(e719,f15,negative).
example(e719,f16,negative).
example(e719,f17,positive).
example(e719,f18,negative).
example(e720,f1,negative).
example(e720,f2,positive).
example(e720,f3,negative).
example(e720,f4,negative).
example(e720,f5,positive).
example(e720,f6,negative).
example(e720,f7,negative).
example(e720,f8,positive).
example(e720,f9,positive).
example(e720,f10,negative).
example(e720,f11,negative).
example(e720,f12,positive).
example(e720,f13,positive).
example(e720,f14,negative).
example(e720,f15,negative).
example(e720,f16,positive).
example(e720,f17,positive).
example(e720,f18,negative).
example(e721,f1,negative).
example(e721,f2,positive).
example(e721,f3,negative).
example(e721,f4,negative).
example(e721,f5,positive).
example(e721,f6,negative).
example(e721,f7,negative).
example(e721,f8,positive).
example(e721,f9,positive).
example(e721,f10,negative).
example(e721,f11,negative).
example(e721,f12,positive).
example(e721,f13,positive).
example(e721,f14,negative).
example(e721,f15,positive).
example(e721,f16,negative).
example(e721,f17,negative).
example(e721,f18,positive).
example(e722,f1,negative).
example(e722,f2,positive).
example(e722,f3,negative).
example(e722,f4,negative).
example(e722,f5,positive).
example(e722,f6,negative).
example(e722,f7,negative).
example(e722,f8,positive).
example(e722,f9,positive).
example(e722,f10,negative).
example(e722,f11,negative).
example(e722,f12,positive).
example(e722,f13,positive).
example(e722,f14,negative).
example(e722,f15,negative).
example(e722,f16,negative).
example(e722,f17,negative).
example(e722,f18,negative).
example(e723,f1,negative).
example(e723,f2,positive).
example(e723,f3,negative).
example(e723,f4,negative).
example(e723,f5,positive).
example(e723,f6,negative).
example(e723,f7,negative).
example(e723,f8,positive).
example(e723,f9,positive).
example(e723,f10,negative).
example(e723,f11,positive).
example(e723,f12,negative).
example(e723,f13,positive).
example(e723,f14,negative).
example(e723,f15,negative).
example(e723,f16,positive).
example(e723,f17,negative).
example(e723,f18,positive).
example(e724,f1,negative).
example(e724,f2,positive).
example(e724,f3,negative).
example(e724,f4,negative).
example(e724,f5,positive).
example(e724,f6,negative).
example(e724,f7,negative).
example(e724,f8,positive).
example(e724,f9,positive).
example(e724,f10,negative).
example(e724,f11,negative).
example(e724,f12,negative).
example(e724,f13,positive).
example(e724,f14,negative).
example(e724,f15,negative).
example(e724,f16,positive).
example(e724,f17,negative).
example(e724,f18,negative).
example(e725,f1,negative).
example(e725,f2,positive).
example(e725,f3,negative).
example(e725,f4,negative).
example(e725,f5,positive).
example(e725,f6,negative).
example(e725,f7,negative).
example(e725,f8,positive).
example(e725,f9,positive).
example(e725,f10,negative).
example(e725,f11,negative).
example(e725,f12,negative).
example(e725,f13,positive).
example(e725,f14,negative).
example(e725,f15,negative).
example(e725,f16,negative).
example(e725,f17,negative).
example(e725,f18,positive).
example(e726,f1,negative).
example(e726,f2,positive).
example(e726,f3,negative).
example(e726,f4,negative).
example(e726,f5,positive).
example(e726,f6,negative).
example(e726,f7,negative).
example(e726,f8,positive).
example(e726,f9,negative).
example(e726,f10,negative).
example(e726,f11,positive).
example(e726,f12,negative).
example(e726,f13,negative).
example(e726,f14,negative).
example(e726,f15,negative).
example(e726,f16,positive).
example(e726,f17,positive).
example(e726,f18,negative).
example(e727,f1,negative).
example(e727,f2,positive).
example(e727,f3,negative).
example(e727,f4,negative).
example(e727,f5,positive).
example(e727,f6,negative).
example(e727,f7,positive).
example(e727,f8,negative).
example(e727,f9,negative).
example(e727,f10,positive).
example(e727,f11,positive).
example(e727,f12,negative).
example(e727,f13,negative).
example(e727,f14,positive).
example(e727,f15,negative).
example(e727,f16,positive).
example(e727,f17,positive).
example(e727,f18,negative).
example(e728,f1,negative).
example(e728,f2,positive).
example(e728,f3,negative).
example(e728,f4,negative).
example(e728,f5,positive).
example(e728,f6,negative).
example(e728,f7,positive).
example(e728,f8,negative).
example(e728,f9,positive).
example(e728,f10,negative).
example(e728,f11,negative).
example(e728,f12,positive).
example(e728,f13,positive).
example(e728,f14,negative).
example(e728,f15,negative).
example(e728,f16,positive).
example(e728,f17,negative).
example(e728,f18,positive).
example(e729,f1,negative).
example(e729,f2,positive).
example(e729,f3,negative).
example(e729,f4,negative).
example(e729,f5,positive).
example(e729,f6,negative).
example(e729,f7,negative).
example(e729,f8,negative).
example(e729,f9,negative).
example(e729,f10,positive).
example(e729,f11,positive).
example(e729,f12,negative).
example(e729,f13,negative).
example(e729,f14,positive).
example(e729,f15,negative).
example(e729,f16,negative).
example(e729,f17,positive).
example(e729,f18,negative).
example(e730,f1,negative).
example(e730,f2,positive).
example(e730,f3,negative).
example(e730,f4,negative).
example(e730,f5,positive).
example(e730,f6,negative).
example(e730,f7,negative).
example(e730,f8,negative).
example(e730,f9,negative).
example(e730,f10,positive).
example(e730,f11,positive).
example(e730,f12,negative).
example(e730,f13,negative).
example(e730,f14,negative).
example(e730,f15,negative).
example(e730,f16,positive).
example(e730,f17,positive).
example(e730,f18,negative).
example(e731,f1,negative).
example(e731,f2,positive).
example(e731,f3,negative).
example(e731,f4,negative).
example(e731,f5,positive).
example(e731,f6,negative).
example(e731,f7,negative).
example(e731,f8,negative).
example(e731,f9,positive).
example(e731,f10,negative).
example(e731,f11,negative).
example(e731,f12,positive).
example(e731,f13,positive).
example(e731,f14,negative).
example(e731,f15,negative).
example(e731,f16,positive).
example(e731,f17,negative).
example(e731,f18,negative).
example(e732,f1,negative).
example(e732,f2,positive).
example(e732,f3,negative).
example(e732,f4,negative).
example(e732,f5,positive).
example(e732,f6,negative).
example(e732,f7,negative).
example(e732,f8,negative).
example(e732,f9,positive).
example(e732,f10,negative).
example(e732,f11,negative).
example(e732,f12,positive).
example(e732,f13,positive).
example(e732,f14,negative).
example(e732,f15,negative).
example(e732,f16,negative).
example(e732,f17,negative).
example(e732,f18,positive).
example(e733,f1,negative).
example(e733,f2,positive).
example(e733,f3,negative).
example(e733,f4,negative).
example(e733,f5,positive).
example(e733,f6,negative).
example(e733,f7,negative).
example(e733,f8,negative).
example(e733,f9,positive).
example(e733,f10,negative).
example(e733,f11,negative).
example(e733,f12,negative).
example(e733,f13,positive).
example(e733,f14,negative).
example(e733,f15,negative).
example(e733,f16,positive).
example(e733,f17,negative).
example(e733,f18,positive).
example(e734,f1,negative).
example(e734,f2,positive).
example(e734,f3,negative).
example(e734,f4,negative).
example(e734,f5,positive).
example(e734,f6,negative).
example(e734,f7,negative).
example(e734,f8,negative).
example(e734,f9,negative).
example(e734,f10,negative).
example(e734,f11,positive).
example(e734,f12,negative).
example(e734,f13,negative).
example(e734,f14,positive).
example(e734,f15,negative).
example(e734,f16,positive).
example(e734,f17,positive).
example(e734,f18,negative).
example(e735,f1,negative).
example(e735,f2,positive).
example(e735,f3,negative).
example(e735,f4,negative).
example(e735,f5,negative).
example(e735,f6,negative).
example(e735,f7,negative).
example(e735,f8,positive).
example(e735,f9,negative).
example(e735,f10,positive).
example(e735,f11,negative).
example(e735,f12,negative).
example(e735,f13,positive).
example(e735,f14,negative).
example(e735,f15,positive).
example(e735,f16,negative).
example(e735,f17,positive).
example(e735,f18,negative).
example(e736,f1,negative).
example(e736,f2,positive).
example(e736,f3,negative).
example(e736,f4,negative).
example(e736,f5,negative).
example(e736,f6,negative).
example(e736,f7,negative).
example(e736,f8,positive).
example(e736,f9,negative).
example(e736,f10,negative).
example(e736,f11,negative).
example(e736,f12,positive).
example(e736,f13,positive).
example(e736,f14,negative).
example(e736,f15,positive).
example(e736,f16,negative).
example(e736,f17,positive).
example(e736,f18,negative).
example(e737,f1,negative).
example(e737,f2,positive).
example(e737,f3,negative).
example(e737,f4,negative).
example(e737,f5,negative).
example(e737,f6,negative).
example(e737,f7,positive).
example(e737,f8,negative).
example(e737,f9,positive).
example(e737,f10,negative).
example(e737,f11,positive).
example(e737,f12,negative).
example(e737,f13,negative).
example(e737,f14,positive).
example(e737,f15,negative).
example(e737,f16,positive).
example(e737,f17,negative).
example(e737,f18,negative).
example(e738,f1,negative).
example(e738,f2,positive).
example(e738,f3,negative).
example(e738,f4,negative).
example(e738,f5,negative).
example(e738,f6,negative).
example(e738,f7,positive).
example(e738,f8,negative).
example(e738,f9,positive).
example(e738,f10,negative).
example(e738,f11,positive).
example(e738,f12,negative).
example(e738,f13,negative).
example(e738,f14,positive).
example(e738,f15,negative).
example(e738,f16,negative).
example(e738,f17,negative).
example(e738,f18,positive).
example(e739,f1,negative).
example(e739,f2,positive).
example(e739,f3,negative).
example(e739,f4,negative).
example(e739,f5,negative).
example(e739,f6,negative).
example(e739,f7,positive).
example(e739,f8,negative).
example(e739,f9,positive).
example(e739,f10,negative).
example(e739,f11,positive).
example(e739,f12,negative).
example(e739,f13,negative).
example(e739,f14,negative).
example(e739,f15,negative).
example(e739,f16,positive).
example(e739,f17,negative).
example(e739,f18,positive).
example(e740,f1,negative).
example(e740,f2,positive).
example(e740,f3,negative).
example(e740,f4,negative).
example(e740,f5,negative).
example(e740,f6,negative).
example(e740,f7,negative).
example(e740,f8,negative).
example(e740,f9,negative).
example(e740,f10,positive).
example(e740,f11,negative).
example(e740,f12,positive).
example(e740,f13,positive).
example(e740,f14,negative).
example(e740,f15,positive).
example(e740,f16,negative).
example(e740,f17,positive).
example(e740,f18,negative).
example(e741,f1,positive).
example(e741,f2,negative).
example(e741,f3,negative).
example(e741,f4,positive).
example(e741,f5,negative).
example(e741,f6,positive).
example(e741,f7,negative).
example(e741,f8,positive).
example(e741,f9,negative).
example(e741,f10,positive).
example(e741,f11,negative).
example(e741,f12,negative).
example(e741,f13,positive).
example(e741,f14,negative).
example(e741,f15,positive).
example(e741,f16,negative).
example(e741,f17,positive).
example(e741,f18,negative).
example(e742,f1,positive).
example(e742,f2,negative).
example(e742,f3,negative).
example(e742,f4,positive).
example(e742,f5,negative).
example(e742,f6,positive).
example(e742,f7,negative).
example(e742,f8,positive).
example(e742,f9,positive).
example(e742,f10,negative).
example(e742,f11,negative).
example(e742,f12,positive).
example(e742,f13,positive).
example(e742,f14,negative).
example(e742,f15,negative).
example(e742,f16,negative).
example(e742,f17,positive).
example(e742,f18,negative).
example(e743,f1,positive).
example(e743,f2,negative).
example(e743,f3,negative).
example(e743,f4,positive).
example(e743,f5,negative).
example(e743,f6,positive).
example(e743,f7,negative).
example(e743,f8,positive).
example(e743,f9,positive).
example(e743,f10,negative).
example(e743,f11,negative).
example(e743,f12,positive).
example(e743,f13,negative).
example(e743,f14,negative).
example(e743,f15,positive).
example(e743,f16,negative).
example(e743,f17,positive).
example(e743,f18,negative).
example(e744,f1,positive).
example(e744,f2,negative).
example(e744,f3,negative).
example(e744,f4,positive).
example(e744,f5,negative).
example(e744,f6,positive).
example(e744,f7,negative).
example(e744,f8,positive).
example(e744,f9,positive).
example(e744,f10,negative).
example(e744,f11,positive).
example(e744,f12,negative).
example(e744,f13,negative).
example(e744,f14,positive).
example(e744,f15,negative).
example(e744,f16,negative).
example(e744,f17,positive).
example(e744,f18,negative).
example(e745,f1,positive).
example(e745,f2,negative).
example(e745,f3,negative).
example(e745,f4,positive).
example(e745,f5,negative).
example(e745,f6,positive).
example(e745,f7,negative).
example(e745,f8,positive).
example(e745,f9,positive).
example(e745,f10,negative).
example(e745,f11,positive).
example(e745,f12,negative).
example(e745,f13,negative).
example(e745,f14,negative).
example(e745,f15,negative).
example(e745,f16,positive).
example(e745,f17,positive).
example(e745,f18,negative).
example(e746,f1,positive).
example(e746,f2,negative).
example(e746,f3,negative).
example(e746,f4,positive).
example(e746,f5,negative).
example(e746,f6,positive).
example(e746,f7,negative).
example(e746,f8,positive).
example(e746,f9,positive).
example(e746,f10,negative).
example(e746,f11,negative).
example(e746,f12,negative).
example(e746,f13,negative).
example(e746,f14,positive).
example(e746,f15,positive).
example(e746,f16,negative).
example(e746,f17,positive).
example(e746,f18,negative).
example(e747,f1,positive).
example(e747,f2,negative).
example(e747,f3,negative).
example(e747,f4,positive).
example(e747,f5,negative).
example(e747,f6,positive).
example(e747,f7,negative).
example(e747,f8,positive).
example(e747,f9,positive).
example(e747,f10,negative).
example(e747,f11,negative).
example(e747,f12,negative).
example(e747,f13,positive).
example(e747,f14,negative).
example(e747,f15,negative).
example(e747,f16,positive).
example(e747,f17,positive).
example(e747,f18,negative).
example(e748,f1,positive).
example(e748,f2,negative).
example(e748,f3,negative).
example(e748,f4,positive).
example(e748,f5,negative).
example(e748,f6,positive).
example(e748,f7,negative).
example(e748,f8,positive).
example(e748,f9,positive).
example(e748,f10,negative).
example(e748,f11,negative).
example(e748,f12,negative).
example(e748,f13,negative).
example(e748,f14,negative).
example(e748,f15,negative).
example(e748,f16,negative).
example(e748,f17,positive).
example(e748,f18,negative).
example(e749,f1,positive).
example(e749,f2,negative).
example(e749,f3,negative).
example(e749,f4,positive).
example(e749,f5,negative).
example(e749,f6,positive).
example(e749,f7,negative).
example(e749,f8,positive).
example(e749,f9,negative).
example(e749,f10,negative).
example(e749,f11,negative).
example(e749,f12,positive).
example(e749,f13,positive).
example(e749,f14,negative).
example(e749,f15,positive).
example(e749,f16,negative).
example(e749,f17,positive).
example(e749,f18,negative).
example(e750,f1,positive).
example(e750,f2,negative).
example(e750,f3,negative).
example(e750,f4,positive).
example(e750,f5,negative).
example(e750,f6,positive).
example(e750,f7,positive).
example(e750,f8,negative).
example(e750,f9,negative).
example(e750,f10,positive).
example(e750,f11,negative).
example(e750,f12,positive).
example(e750,f13,positive).
example(e750,f14,negative).
example(e750,f15,positive).
example(e750,f16,negative).
example(e750,f17,negative).
example(e750,f18,negative).
example(e751,f1,positive).
example(e751,f2,negative).
example(e751,f3,negative).
example(e751,f4,positive).
example(e751,f5,negative).
example(e751,f6,positive).
example(e751,f7,positive).
example(e751,f8,negative).
example(e751,f9,negative).
example(e751,f10,positive).
example(e751,f11,negative).
example(e751,f12,positive).
example(e751,f13,positive).
example(e751,f14,negative).
example(e751,f15,negative).
example(e751,f16,negative).
example(e751,f17,positive).
example(e751,f18,negative).
example(e752,f1,positive).
example(e752,f2,negative).
example(e752,f3,negative).
example(e752,f4,positive).
example(e752,f5,negative).
example(e752,f6,positive).
example(e752,f7,positive).
example(e752,f8,negative).
example(e752,f9,negative).
example(e752,f10,positive).
example(e752,f11,positive).
example(e752,f12,negative).
example(e752,f13,positive).
example(e752,f14,negative).
example(e752,f15,negative).
example(e752,f16,negative).
example(e752,f17,negative).
example(e752,f18,positive).
example(e753,f1,positive).
example(e753,f2,negative).
example(e753,f3,negative).
example(e753,f4,positive).
example(e753,f5,negative).
example(e753,f6,positive).
example(e753,f7,positive).
example(e753,f8,negative).
example(e753,f9,negative).
example(e753,f10,positive).
example(e753,f11,negative).
example(e753,f12,negative).
example(e753,f13,positive).
example(e753,f14,negative).
example(e753,f15,positive).
example(e753,f16,negative).
example(e753,f17,negative).
example(e753,f18,positive).
example(e754,f1,positive).
example(e754,f2,negative).
example(e754,f3,negative).
example(e754,f4,positive).
example(e754,f5,negative).
example(e754,f6,positive).
example(e754,f7,positive).
example(e754,f8,negative).
example(e754,f9,negative).
example(e754,f10,positive).
example(e754,f11,negative).
example(e754,f12,negative).
example(e754,f13,positive).
example(e754,f14,negative).
example(e754,f15,negative).
example(e754,f16,negative).
example(e754,f17,negative).
example(e754,f18,negative).
example(e755,f1,positive).
example(e755,f2,negative).
example(e755,f3,negative).
example(e755,f4,positive).
example(e755,f5,negative).
example(e755,f6,positive).
example(e755,f7,positive).
example(e755,f8,negative).
example(e755,f9,positive).
example(e755,f10,negative).
example(e755,f11,negative).
example(e755,f12,positive).
example(e755,f13,negative).
example(e755,f14,positive).
example(e755,f15,negative).
example(e755,f16,negative).
example(e755,f17,positive).
example(e755,f18,negative).
example(e756,f1,positive).
example(e756,f2,negative).
example(e756,f3,negative).
example(e756,f4,positive).
example(e756,f5,negative).
example(e756,f6,positive).
example(e756,f7,positive).
example(e756,f8,negative).
example(e756,f9,positive).
example(e756,f10,negative).
example(e756,f11,negative).
example(e756,f12,positive).
example(e756,f13,positive).
example(e756,f14,negative).
example(e756,f15,negative).
example(e756,f16,positive).
example(e756,f17,negative).
example(e756,f18,negative).
example(e757,f1,positive).
example(e757,f2,negative).
example(e757,f3,negative).
example(e757,f4,positive).
example(e757,f5,negative).
example(e757,f6,positive).
example(e757,f7,positive).
example(e757,f8,negative).
example(e757,f9,positive).
example(e757,f10,negative).
example(e757,f11,negative).
example(e757,f12,positive).
example(e757,f13,negative).
example(e757,f14,negative).
example(e757,f15,negative).
example(e757,f16,positive).
example(e757,f17,positive).
example(e757,f18,negative).
example(e758,f1,positive).
example(e758,f2,negative).
example(e758,f3,negative).
example(e758,f4,positive).
example(e758,f5,negative).
example(e758,f6,positive).
example(e758,f7,positive).
example(e758,f8,negative).
example(e758,f9,positive).
example(e758,f10,negative).
example(e758,f11,positive).
example(e758,f12,negative).
example(e758,f13,negative).
example(e758,f14,positive).
example(e758,f15,negative).
example(e758,f16,positive).
example(e758,f17,negative).
example(e758,f18,negative).
example(e759,f1,positive).
example(e759,f2,negative).
example(e759,f3,negative).
example(e759,f4,positive).
example(e759,f5,negative).
example(e759,f6,positive).
example(e759,f7,positive).
example(e759,f8,negative).
example(e759,f9,positive).
example(e759,f10,negative).
example(e759,f11,positive).
example(e759,f12,negative).
example(e759,f13,negative).
example(e759,f14,positive).
example(e759,f15,negative).
example(e759,f16,negative).
example(e759,f17,negative).
example(e759,f18,positive).
example(e760,f1,positive).
example(e760,f2,negative).
example(e760,f3,negative).
example(e760,f4,positive).
example(e760,f5,negative).
example(e760,f6,positive).
example(e760,f7,positive).
example(e760,f8,negative).
example(e760,f9,positive).
example(e760,f10,negative).
example(e760,f11,positive).
example(e760,f12,negative).
example(e760,f13,negative).
example(e760,f14,negative).
example(e760,f15,negative).
example(e760,f16,positive).
example(e760,f17,negative).
example(e760,f18,positive).
example(e761,f1,positive).
example(e761,f2,negative).
example(e761,f3,negative).
example(e761,f4,positive).
example(e761,f5,negative).
example(e761,f6,positive).
example(e761,f7,positive).
example(e761,f8,negative).
example(e761,f9,positive).
example(e761,f10,negative).
example(e761,f11,negative).
example(e761,f12,negative).
example(e761,f13,negative).
example(e761,f14,positive).
example(e761,f15,negative).
example(e761,f16,positive).
example(e761,f17,positive).
example(e761,f18,negative).
example(e762,f1,positive).
example(e762,f2,negative).
example(e762,f3,negative).
example(e762,f4,positive).
example(e762,f5,negative).
example(e762,f6,positive).
example(e762,f7,positive).
example(e762,f8,negative).
example(e762,f9,positive).
example(e762,f10,negative).
example(e762,f11,negative).
example(e762,f12,negative).
example(e762,f13,positive).
example(e762,f14,negative).
example(e762,f15,negative).
example(e762,f16,positive).
example(e762,f17,negative).
example(e762,f18,positive).
example(e763,f1,positive).
example(e763,f2,negative).
example(e763,f3,negative).
example(e763,f4,positive).
example(e763,f5,negative).
example(e763,f6,positive).
example(e763,f7,positive).
example(e763,f8,negative).
example(e763,f9,negative).
example(e763,f10,negative).
example(e763,f11,negative).
example(e763,f12,positive).
example(e763,f13,positive).
example(e763,f14,negative).
example(e763,f15,negative).
example(e763,f16,positive).
example(e763,f17,positive).
example(e763,f18,negative).
example(e764,f1,positive).
example(e764,f2,negative).
example(e764,f3,negative).
example(e764,f4,positive).
example(e764,f5,negative).
example(e764,f6,positive).
example(e764,f7,positive).
example(e764,f8,negative).
example(e764,f9,negative).
example(e764,f10,negative).
example(e764,f11,negative).
example(e764,f12,positive).
example(e764,f13,positive).
example(e764,f14,negative).
example(e764,f15,negative).
example(e764,f16,negative).
example(e764,f17,negative).
example(e764,f18,negative).
example(e765,f1,positive).
example(e765,f2,negative).
example(e765,f3,negative).
example(e765,f4,positive).
example(e765,f5,negative).
example(e765,f6,positive).
example(e765,f7,positive).
example(e765,f8,negative).
example(e765,f9,negative).
example(e765,f10,negative).
example(e765,f11,positive).
example(e765,f12,negative).
example(e765,f13,positive).
example(e765,f14,negative).
example(e765,f15,negative).
example(e765,f16,positive).
example(e765,f17,negative).
example(e765,f18,positive).
example(e766,f1,positive).
example(e766,f2,negative).
example(e766,f3,negative).
example(e766,f4,positive).
example(e766,f5,negative).
example(e766,f6,positive).
example(e766,f7,positive).
example(e766,f8,negative).
example(e766,f9,negative).
example(e766,f10,negative).
example(e766,f11,negative).
example(e766,f12,negative).
example(e766,f13,positive).
example(e766,f14,negative).
example(e766,f15,negative).
example(e766,f16,positive).
example(e766,f17,negative).
example(e766,f18,negative).
example(e767,f1,positive).
example(e767,f2,negative).
example(e767,f3,negative).
example(e767,f4,positive).
example(e767,f5,negative).
example(e767,f6,positive).
example(e767,f7,positive).
example(e767,f8,negative).
example(e767,f9,negative).
example(e767,f10,negative).
example(e767,f11,negative).
example(e767,f12,negative).
example(e767,f13,positive).
example(e767,f14,negative).
example(e767,f15,negative).
example(e767,f16,negative).
example(e767,f17,negative).
example(e767,f18,positive).
example(e768,f1,positive).
example(e768,f2,negative).
example(e768,f3,negative).
example(e768,f4,positive).
example(e768,f5,negative).
example(e768,f6,positive).
example(e768,f7,negative).
example(e768,f8,negative).
example(e768,f9,negative).
example(e768,f10,positive).
example(e768,f11,negative).
example(e768,f12,positive).
example(e768,f13,positive).
example(e768,f14,negative).
example(e768,f15,positive).
example(e768,f16,negative).
example(e768,f17,positive).
example(e768,f18,negative).
example(e769,f1,positive).
example(e769,f2,negative).
example(e769,f3,negative).
example(e769,f4,positive).
example(e769,f5,negative).
example(e769,f6,positive).
example(e769,f7,negative).
example(e769,f8,negative).
example(e769,f9,positive).
example(e769,f10,negative).
example(e769,f11,negative).
example(e769,f12,positive).
example(e769,f13,negative).
example(e769,f14,positive).
example(e769,f15,positive).
example(e769,f16,negative).
example(e769,f17,positive).
example(e769,f18,negative).
example(e770,f1,positive).
example(e770,f2,negative).
example(e770,f3,negative).
example(e770,f4,positive).
example(e770,f5,negative).
example(e770,f6,positive).
example(e770,f7,negative).
example(e770,f8,negative).
example(e770,f9,positive).
example(e770,f10,negative).
example(e770,f11,negative).
example(e770,f12,positive).
example(e770,f13,positive).
example(e770,f14,negative).
example(e770,f15,negative).
example(e770,f16,positive).
example(e770,f17,positive).
example(e770,f18,negative).
example(e771,f1,positive).
example(e771,f2,negative).
example(e771,f3,negative).
example(e771,f4,positive).
example(e771,f5,negative).
example(e771,f6,positive).
example(e771,f7,negative).
example(e771,f8,negative).
example(e771,f9,positive).
example(e771,f10,negative).
example(e771,f11,negative).
example(e771,f12,positive).
example(e771,f13,negative).
example(e771,f14,negative).
example(e771,f15,negative).
example(e771,f16,negative).
example(e771,f17,positive).
example(e771,f18,negative).
example(e772,f1,positive).
example(e772,f2,negative).
example(e772,f3,negative).
example(e772,f4,positive).
example(e772,f5,negative).
example(e772,f6,positive).
example(e772,f7,negative).
example(e772,f8,negative).
example(e772,f9,positive).
example(e772,f10,negative).
example(e772,f11,positive).
example(e772,f12,negative).
example(e772,f13,negative).
example(e772,f14,positive).
example(e772,f15,negative).
example(e772,f16,positive).
example(e772,f17,positive).
example(e772,f18,negative).
example(e773,f1,positive).
example(e773,f2,negative).
example(e773,f3,negative).
example(e773,f4,positive).
example(e773,f5,negative).
example(e773,f6,positive).
example(e773,f7,negative).
example(e773,f8,negative).
example(e773,f9,positive).
example(e773,f10,negative).
example(e773,f11,negative).
example(e773,f12,negative).
example(e773,f13,negative).
example(e773,f14,positive).
example(e773,f15,negative).
example(e773,f16,negative).
example(e773,f17,positive).
example(e773,f18,negative).
example(e774,f1,positive).
example(e774,f2,negative).
example(e774,f3,negative).
example(e774,f4,positive).
example(e774,f5,negative).
example(e774,f6,positive).
example(e774,f7,negative).
example(e774,f8,negative).
example(e774,f9,positive).
example(e774,f10,negative).
example(e774,f11,negative).
example(e774,f12,negative).
example(e774,f13,negative).
example(e774,f14,negative).
example(e774,f15,negative).
example(e774,f16,positive).
example(e774,f17,positive).
example(e774,f18,negative).
example(e775,f1,positive).
example(e775,f2,negative).
example(e775,f3,negative).
example(e775,f4,positive).
example(e775,f5,positive).
example(e775,f6,negative).
example(e775,f7,negative).
example(e775,f8,positive).
example(e775,f9,negative).
example(e775,f10,positive).
example(e775,f11,positive).
example(e775,f12,negative).
example(e775,f13,negative).
example(e775,f14,positive).
example(e775,f15,negative).
example(e775,f16,negative).
example(e775,f17,positive).
example(e775,f18,negative).
example(e776,f1,positive).
example(e776,f2,negative).
example(e776,f3,negative).
example(e776,f4,positive).
example(e776,f5,positive).
example(e776,f6,negative).
example(e776,f7,negative).
example(e776,f8,positive).
example(e776,f9,positive).
example(e776,f10,negative).
example(e776,f11,negative).
example(e776,f12,positive).
example(e776,f13,negative).
example(e776,f14,positive).
example(e776,f15,negative).
example(e776,f16,negative).
example(e776,f17,positive).
example(e776,f18,negative).
example(e777,f1,positive).
example(e777,f2,negative).
example(e777,f3,negative).
example(e777,f4,positive).
example(e777,f5,positive).
example(e777,f6,negative).
example(e777,f7,negative).
example(e777,f8,positive).
example(e777,f9,positive).
example(e777,f10,negative).
example(e777,f11,negative).
example(e777,f12,positive).
example(e777,f13,positive).
example(e777,f14,negative).
example(e777,f15,negative).
example(e777,f16,positive).
example(e777,f17,negative).
example(e777,f18,negative).
example(e778,f1,positive).
example(e778,f2,negative).
example(e778,f3,negative).
example(e778,f4,positive).
example(e778,f5,positive).
example(e778,f6,negative).
example(e778,f7,negative).
example(e778,f8,positive).
example(e778,f9,positive).
example(e778,f10,negative).
example(e778,f11,negative).
example(e778,f12,positive).
example(e778,f13,positive).
example(e778,f14,negative).
example(e778,f15,negative).
example(e778,f16,negative).
example(e778,f17,negative).
example(e778,f18,positive).
example(e779,f1,positive).
example(e779,f2,negative).
example(e779,f3,negative).
example(e779,f4,positive).
example(e779,f5,positive).
example(e779,f6,negative).
example(e779,f7,negative).
example(e779,f8,positive).
example(e779,f9,positive).
example(e779,f10,negative).
example(e779,f11,negative).
example(e779,f12,positive).
example(e779,f13,negative).
example(e779,f14,negative).
example(e779,f15,negative).
example(e779,f16,positive).
example(e779,f17,positive).
example(e779,f18,negative).
example(e780,f1,positive).
example(e780,f2,negative).
example(e780,f3,negative).
example(e780,f4,positive).
example(e780,f5,positive).
example(e780,f6,negative).
example(e780,f7,negative).
example(e780,f8,positive).
example(e780,f9,positive).
example(e780,f10,negative).
example(e780,f11,negative).
example(e780,f12,negative).
example(e780,f13,negative).
example(e780,f14,positive).
example(e780,f15,negative).
example(e780,f16,positive).
example(e780,f17,positive).
example(e780,f18,negative).
example(e781,f1,positive).
example(e781,f2,negative).
example(e781,f3,negative).
example(e781,f4,positive).
example(e781,f5,positive).
example(e781,f6,negative).
example(e781,f7,negative).
example(e781,f8,positive).
example(e781,f9,positive).
example(e781,f10,negative).
example(e781,f11,negative).
example(e781,f12,negative).
example(e781,f13,positive).
example(e781,f14,negative).
example(e781,f15,negative).
example(e781,f16,positive).
example(e781,f17,negative).
example(e781,f18,positive).
example(e782,f1,positive).
example(e782,f2,negative).
example(e782,f3,negative).
example(e782,f4,positive).
example(e782,f5,positive).
example(e782,f6,negative).
example(e782,f7,negative).
example(e782,f8,positive).
example(e782,f9,negative).
example(e782,f10,negative).
example(e782,f11,positive).
example(e782,f12,negative).
example(e782,f13,negative).
example(e782,f14,positive).
example(e782,f15,negative).
example(e782,f16,positive).
example(e782,f17,positive).
example(e782,f18,negative).
example(e783,f1,positive).
example(e783,f2,negative).
example(e783,f3,negative).
example(e783,f4,positive).
example(e783,f5,positive).
example(e783,f6,negative).
example(e783,f7,positive).
example(e783,f8,negative).
example(e783,f9,negative).
example(e783,f10,positive).
example(e783,f11,negative).
example(e783,f12,positive).
example(e783,f13,positive).
example(e783,f14,negative).
example(e783,f15,negative).
example(e783,f16,negative).
example(e783,f17,negative).
example(e783,f18,positive).
example(e784,f1,positive).
example(e784,f2,negative).
example(e784,f3,negative).
example(e784,f4,positive).
example(e784,f5,positive).
example(e784,f6,negative).
example(e784,f7,positive).
example(e784,f8,negative).
example(e784,f9,negative).
example(e784,f10,negative).
example(e784,f11,negative).
example(e784,f12,positive).
example(e784,f13,positive).
example(e784,f14,negative).
example(e784,f15,negative).
example(e784,f16,positive).
example(e784,f17,negative).
example(e784,f18,positive).
example(e785,f1,positive).
example(e785,f2,negative).
example(e785,f3,negative).
example(e785,f4,positive).
example(e785,f5,positive).
example(e785,f6,negative).
example(e785,f7,negative).
example(e785,f8,negative).
example(e785,f9,positive).
example(e785,f10,negative).
example(e785,f11,negative).
example(e785,f12,positive).
example(e785,f13,negative).
example(e785,f14,positive).
example(e785,f15,negative).
example(e785,f16,positive).
example(e785,f17,positive).
example(e785,f18,negative).
example(e786,f1,positive).
example(e786,f2,negative).
example(e786,f3,negative).
example(e786,f4,positive).
example(e786,f5,positive).
example(e786,f6,negative).
example(e786,f7,negative).
example(e786,f8,negative).
example(e786,f9,positive).
example(e786,f10,negative).
example(e786,f11,negative).
example(e786,f12,positive).
example(e786,f13,positive).
example(e786,f14,negative).
example(e786,f15,negative).
example(e786,f16,positive).
example(e786,f17,negative).
example(e786,f18,positive).
example(e787,f1,positive).
example(e787,f2,negative).
example(e787,f3,negative).
example(e787,f4,positive).
example(e787,f5,negative).
example(e787,f6,negative).
example(e787,f7,negative).
example(e787,f8,positive).
example(e787,f9,positive).
example(e787,f10,negative).
example(e787,f11,negative).
example(e787,f12,positive).
example(e787,f13,negative).
example(e787,f14,positive).
example(e787,f15,positive).
example(e787,f16,negative).
example(e787,f17,positive).
example(e787,f18,negative).
example(e788,f1,positive).
example(e788,f2,negative).
example(e788,f3,negative).
example(e788,f4,positive).
example(e788,f5,negative).
example(e788,f6,negative).
example(e788,f7,negative).
example(e788,f8,positive).
example(e788,f9,positive).
example(e788,f10,negative).
example(e788,f11,negative).
example(e788,f12,positive).
example(e788,f13,positive).
example(e788,f14,negative).
example(e788,f15,negative).
example(e788,f16,positive).
example(e788,f17,positive).
example(e788,f18,negative).
example(e789,f1,positive).
example(e789,f2,negative).
example(e789,f3,negative).
example(e789,f4,positive).
example(e789,f5,negative).
example(e789,f6,negative).
example(e789,f7,negative).
example(e789,f8,positive).
example(e789,f9,positive).
example(e789,f10,negative).
example(e789,f11,negative).
example(e789,f12,positive).
example(e789,f13,negative).
example(e789,f14,negative).
example(e789,f15,negative).
example(e789,f16,negative).
example(e789,f17,positive).
example(e789,f18,negative).
example(e790,f1,positive).
example(e790,f2,negative).
example(e790,f3,negative).
example(e790,f4,positive).
example(e790,f5,negative).
example(e790,f6,negative).
example(e790,f7,negative).
example(e790,f8,positive).
example(e790,f9,positive).
example(e790,f10,negative).
example(e790,f11,positive).
example(e790,f12,negative).
example(e790,f13,negative).
example(e790,f14,positive).
example(e790,f15,negative).
example(e790,f16,positive).
example(e790,f17,positive).
example(e790,f18,negative).
example(e791,f1,positive).
example(e791,f2,negative).
example(e791,f3,negative).
example(e791,f4,positive).
example(e791,f5,negative).
example(e791,f6,negative).
example(e791,f7,negative).
example(e791,f8,positive).
example(e791,f9,positive).
example(e791,f10,negative).
example(e791,f11,negative).
example(e791,f12,negative).
example(e791,f13,negative).
example(e791,f14,positive).
example(e791,f15,negative).
example(e791,f16,negative).
example(e791,f17,positive).
example(e791,f18,negative).
example(e792,f1,positive).
example(e792,f2,negative).
example(e792,f3,negative).
example(e792,f4,positive).
example(e792,f5,negative).
example(e792,f6,negative).
example(e792,f7,negative).
example(e792,f8,positive).
example(e792,f9,positive).
example(e792,f10,negative).
example(e792,f11,negative).
example(e792,f12,negative).
example(e792,f13,negative).
example(e792,f14,negative).
example(e792,f15,negative).
example(e792,f16,positive).
example(e792,f17,positive).
example(e792,f18,negative).
example(e793,f1,positive).
example(e793,f2,negative).
example(e793,f3,negative).
example(e793,f4,positive).
example(e793,f5,negative).
example(e793,f6,negative).
example(e793,f7,positive).
example(e793,f8,negative).
example(e793,f9,negative).
example(e793,f10,positive).
example(e793,f11,negative).
example(e793,f12,positive).
example(e793,f13,positive).
example(e793,f14,negative).
example(e793,f15,positive).
example(e793,f16,negative).
example(e793,f17,negative).
example(e793,f18,positive).
example(e794,f1,positive).
example(e794,f2,negative).
example(e794,f3,negative).
example(e794,f4,positive).
example(e794,f5,negative).
example(e794,f6,negative).
example(e794,f7,positive).
example(e794,f8,negative).
example(e794,f9,negative).
example(e794,f10,positive).
example(e794,f11,negative).
example(e794,f12,positive).
example(e794,f13,positive).
example(e794,f14,negative).
example(e794,f15,negative).
example(e794,f16,negative).
example(e794,f17,negative).
example(e794,f18,negative).
example(e795,f1,positive).
example(e795,f2,negative).
example(e795,f3,negative).
example(e795,f4,positive).
example(e795,f5,negative).
example(e795,f6,negative).
example(e795,f7,positive).
example(e795,f8,negative).
example(e795,f9,negative).
example(e795,f10,positive).
example(e795,f11,negative).
example(e795,f12,negative).
example(e795,f13,positive).
example(e795,f14,negative).
example(e795,f15,negative).
example(e795,f16,negative).
example(e795,f17,negative).
example(e795,f18,positive).
example(e796,f1,positive).
example(e796,f2,negative).
example(e796,f3,negative).
example(e796,f4,positive).
example(e796,f5,negative).
example(e796,f6,negative).
example(e796,f7,positive).
example(e796,f8,negative).
example(e796,f9,positive).
example(e796,f10,negative).
example(e796,f11,negative).
example(e796,f12,positive).
example(e796,f13,negative).
example(e796,f14,positive).
example(e796,f15,negative).
example(e796,f16,positive).
example(e796,f17,positive).
example(e796,f18,negative).
example(e797,f1,positive).
example(e797,f2,negative).
example(e797,f3,negative).
example(e797,f4,positive).
example(e797,f5,negative).
example(e797,f6,negative).
example(e797,f7,positive).
example(e797,f8,negative).
example(e797,f9,positive).
example(e797,f10,negative).
example(e797,f11,negative).
example(e797,f12,positive).
example(e797,f13,positive).
example(e797,f14,negative).
example(e797,f15,negative).
example(e797,f16,positive).
example(e797,f17,negative).
example(e797,f18,positive).
example(e798,f1,positive).
example(e798,f2,negative).
example(e798,f3,negative).
example(e798,f4,positive).
example(e798,f5,negative).
example(e798,f6,negative).
example(e798,f7,positive).
example(e798,f8,negative).
example(e798,f9,negative).
example(e798,f10,negative).
example(e798,f11,negative).
example(e798,f12,positive).
example(e798,f13,positive).
example(e798,f14,negative).
example(e798,f15,negative).
example(e798,f16,positive).
example(e798,f17,negative).
example(e798,f18,negative).
example(e799,f1,positive).
example(e799,f2,negative).
example(e799,f3,negative).
example(e799,f4,positive).
example(e799,f5,negative).
example(e799,f6,negative).
example(e799,f7,positive).
example(e799,f8,negative).
example(e799,f9,negative).
example(e799,f10,negative).
example(e799,f11,negative).
example(e799,f12,positive).
example(e799,f13,positive).
example(e799,f14,negative).
example(e799,f15,negative).
example(e799,f16,negative).
example(e799,f17,negative).
example(e799,f18,positive).
example(e800,f1,positive).
example(e800,f2,negative).
example(e800,f3,negative).
example(e800,f4,positive).
example(e800,f5,negative).
example(e800,f6,negative).
example(e800,f7,positive).
example(e800,f8,negative).
example(e800,f9,negative).
example(e800,f10,negative).
example(e800,f11,negative).
example(e800,f12,negative).
example(e800,f13,positive).
example(e800,f14,negative).
example(e800,f15,negative).
example(e800,f16,positive).
example(e800,f17,negative).
example(e800,f18,positive).
example(e801,f1,positive).
example(e801,f2,negative).
example(e801,f3,negative).
example(e801,f4,positive).
example(e801,f5,negative).
example(e801,f6,negative).
example(e801,f7,negative).
example(e801,f8,negative).
example(e801,f9,positive).
example(e801,f10,negative).
example(e801,f11,negative).
example(e801,f12,positive).
example(e801,f13,negative).
example(e801,f14,positive).
example(e801,f15,negative).
example(e801,f16,negative).
example(e801,f17,positive).
example(e801,f18,negative).
example(e802,f1,positive).
example(e802,f2,negative).
example(e802,f3,negative).
example(e802,f4,positive).
example(e802,f5,negative).
example(e802,f6,negative).
example(e802,f7,negative).
example(e802,f8,negative).
example(e802,f9,positive).
example(e802,f10,negative).
example(e802,f11,negative).
example(e802,f12,positive).
example(e802,f13,negative).
example(e802,f14,negative).
example(e802,f15,negative).
example(e802,f16,positive).
example(e802,f17,positive).
example(e802,f18,negative).
example(e803,f1,positive).
example(e803,f2,negative).
example(e803,f3,negative).
example(e803,f4,positive).
example(e803,f5,negative).
example(e803,f6,negative).
example(e803,f7,negative).
example(e803,f8,negative).
example(e803,f9,positive).
example(e803,f10,negative).
example(e803,f11,negative).
example(e803,f12,negative).
example(e803,f13,negative).
example(e803,f14,positive).
example(e803,f15,negative).
example(e803,f16,positive).
example(e803,f17,positive).
example(e803,f18,negative).
example(e804,f1,positive).
example(e804,f2,negative).
example(e804,f3,positive).
example(e804,f4,negative).
example(e804,f5,negative).
example(e804,f6,positive).
example(e804,f7,negative).
example(e804,f8,positive).
example(e804,f9,positive).
example(e804,f10,negative).
example(e804,f11,negative).
example(e804,f12,positive).
example(e804,f13,negative).
example(e804,f14,positive).
example(e804,f15,positive).
example(e804,f16,negative).
example(e804,f17,negative).
example(e804,f18,negative).
example(e805,f1,positive).
example(e805,f2,negative).
example(e805,f3,positive).
example(e805,f4,negative).
example(e805,f5,negative).
example(e805,f6,positive).
example(e805,f7,negative).
example(e805,f8,positive).
example(e805,f9,positive).
example(e805,f10,negative).
example(e805,f11,negative).
example(e805,f12,positive).
example(e805,f13,negative).
example(e805,f14,positive).
example(e805,f15,negative).
example(e805,f16,negative).
example(e805,f17,positive).
example(e805,f18,negative).
example(e806,f1,positive).
example(e806,f2,negative).
example(e806,f3,positive).
example(e806,f4,negative).
example(e806,f5,negative).
example(e806,f6,positive).
example(e806,f7,negative).
example(e806,f8,positive).
example(e806,f9,positive).
example(e806,f10,negative).
example(e806,f11,negative).
example(e806,f12,positive).
example(e806,f13,negative).
example(e806,f14,negative).
example(e806,f15,negative).
example(e806,f16,positive).
example(e806,f17,positive).
example(e806,f18,negative).
example(e807,f1,positive).
example(e807,f2,negative).
example(e807,f3,positive).
example(e807,f4,negative).
example(e807,f5,negative).
example(e807,f6,positive).
example(e807,f7,negative).
example(e807,f8,positive).
example(e807,f9,positive).
example(e807,f10,negative).
example(e807,f11,negative).
example(e807,f12,negative).
example(e807,f13,negative).
example(e807,f14,positive).
example(e807,f15,negative).
example(e807,f16,positive).
example(e807,f17,positive).
example(e807,f18,negative).
example(e808,f1,positive).
example(e808,f2,negative).
example(e808,f3,positive).
example(e808,f4,negative).
example(e808,f5,negative).
example(e808,f6,positive).
example(e808,f7,negative).
example(e808,f8,positive).
example(e808,f9,positive).
example(e808,f10,negative).
example(e808,f11,negative).
example(e808,f12,negative).
example(e808,f13,negative).
example(e808,f14,positive).
example(e808,f15,positive).
example(e808,f16,negative).
example(e808,f17,negative).
example(e808,f18,positive).
example(e809,f1,positive).
example(e809,f2,negative).
example(e809,f3,positive).
example(e809,f4,negative).
example(e809,f5,negative).
example(e809,f6,positive).
example(e809,f7,positive).
example(e809,f8,negative).
example(e809,f9,negative).
example(e809,f10,positive).
example(e809,f11,negative).
example(e809,f12,positive).
example(e809,f13,positive).
example(e809,f14,negative).
example(e809,f15,negative).
example(e809,f16,positive).
example(e809,f17,negative).
example(e809,f18,negative).
example(e810,f1,positive).
example(e810,f2,negative).
example(e810,f3,positive).
example(e810,f4,negative).
example(e810,f5,negative).
example(e810,f6,positive).
example(e810,f7,positive).
example(e810,f8,negative).
example(e810,f9,negative).
example(e810,f10,positive).
example(e810,f11,negative).
example(e810,f12,negative).
example(e810,f13,positive).
example(e810,f14,negative).
example(e810,f15,negative).
example(e810,f16,positive).
example(e810,f17,negative).
example(e810,f18,positive).
example(e811,f1,positive).
example(e811,f2,negative).
example(e811,f3,positive).
example(e811,f4,negative).
example(e811,f5,negative).
example(e811,f6,positive).
example(e811,f7,negative).
example(e811,f8,negative).
example(e811,f9,positive).
example(e811,f10,negative).
example(e811,f11,negative).
example(e811,f12,positive).
example(e811,f13,negative).
example(e811,f14,positive).
example(e811,f15,negative).
example(e811,f16,positive).
example(e811,f17,positive).
example(e811,f18,negative).
example(e812,f1,positive).
example(e812,f2,negative).
example(e812,f3,positive).
example(e812,f4,negative).
example(e812,f5,positive).
example(e812,f6,negative).
example(e812,f7,negative).
example(e812,f8,positive).
example(e812,f9,negative).
example(e812,f10,positive).
example(e812,f11,positive).
example(e812,f12,negative).
example(e812,f13,negative).
example(e812,f14,positive).
example(e812,f15,negative).
example(e812,f16,positive).
example(e812,f17,negative).
example(e812,f18,negative).
example(e813,f1,positive).
example(e813,f2,negative).
example(e813,f3,positive).
example(e813,f4,negative).
example(e813,f5,positive).
example(e813,f6,negative).
example(e813,f7,negative).
example(e813,f8,positive).
example(e813,f9,negative).
example(e813,f10,positive).
example(e813,f11,positive).
example(e813,f12,negative).
example(e813,f13,negative).
example(e813,f14,positive).
example(e813,f15,negative).
example(e813,f16,negative).
example(e813,f17,negative).
example(e813,f18,positive).
example(e814,f1,positive).
example(e814,f2,negative).
example(e814,f3,positive).
example(e814,f4,negative).
example(e814,f5,positive).
example(e814,f6,negative).
example(e814,f7,negative).
example(e814,f8,positive).
example(e814,f9,negative).
example(e814,f10,positive).
example(e814,f11,positive).
example(e814,f12,negative).
example(e814,f13,negative).
example(e814,f14,negative).
example(e814,f15,negative).
example(e814,f16,positive).
example(e814,f17,negative).
example(e814,f18,positive).
example(e815,f1,positive).
example(e815,f2,negative).
example(e815,f3,positive).
example(e815,f4,negative).
example(e815,f5,positive).
example(e815,f6,negative).
example(e815,f7,negative).
example(e815,f8,positive).
example(e815,f9,negative).
example(e815,f10,positive).
example(e815,f11,negative).
example(e815,f12,negative).
example(e815,f13,negative).
example(e815,f14,positive).
example(e815,f15,negative).
example(e815,f16,positive).
example(e815,f17,positive).
example(e815,f18,negative).
example(e816,f1,positive).
example(e816,f2,negative).
example(e816,f3,positive).
example(e816,f4,negative).
example(e816,f5,positive).
example(e816,f6,negative).
example(e816,f7,negative).
example(e816,f8,positive).
example(e816,f9,negative).
example(e816,f10,positive).
example(e816,f11,negative).
example(e816,f12,negative).
example(e816,f13,negative).
example(e816,f14,positive).
example(e816,f15,positive).
example(e816,f16,negative).
example(e816,f17,negative).
example(e816,f18,positive).
example(e817,f1,positive).
example(e817,f2,negative).
example(e817,f3,positive).
example(e817,f4,negative).
example(e817,f5,positive).
example(e817,f6,negative).
example(e817,f7,negative).
example(e817,f8,positive).
example(e817,f9,negative).
example(e817,f10,positive).
example(e817,f11,negative).
example(e817,f12,negative).
example(e817,f13,negative).
example(e817,f14,positive).
example(e817,f15,negative).
example(e817,f16,negative).
example(e817,f17,negative).
example(e817,f18,negative).
example(e818,f1,positive).
example(e818,f2,negative).
example(e818,f3,positive).
example(e818,f4,negative).
example(e818,f5,positive).
example(e818,f6,negative).
example(e818,f7,negative).
example(e818,f8,positive).
example(e818,f9,negative).
example(e818,f10,positive).
example(e818,f11,negative).
example(e818,f12,negative).
example(e818,f13,positive).
example(e818,f14,negative).
example(e818,f15,negative).
example(e818,f16,positive).
example(e818,f17,negative).
example(e818,f18,positive).
example(e819,f1,positive).
example(e819,f2,negative).
example(e819,f3,positive).
example(e819,f4,negative).
example(e819,f5,positive).
example(e819,f6,negative).
example(e819,f7,negative).
example(e819,f8,positive).
example(e819,f9,negative).
example(e819,f10,positive).
example(e819,f11,negative).
example(e819,f12,negative).
example(e819,f13,negative).
example(e819,f14,negative).
example(e819,f15,negative).
example(e819,f16,positive).
example(e819,f17,negative).
example(e819,f18,negative).
example(e820,f1,positive).
example(e820,f2,negative).
example(e820,f3,positive).
example(e820,f4,negative).
example(e820,f5,positive).
example(e820,f6,negative).
example(e820,f7,negative).
example(e820,f8,positive).
example(e820,f9,negative).
example(e820,f10,positive).
example(e820,f11,negative).
example(e820,f12,negative).
example(e820,f13,negative).
example(e820,f14,negative).
example(e820,f15,negative).
example(e820,f16,negative).
example(e820,f17,negative).
example(e820,f18,positive).
example(e821,f1,positive).
example(e821,f2,negative).
example(e821,f3,positive).
example(e821,f4,negative).
example(e821,f5,positive).
example(e821,f6,negative).
example(e821,f7,negative).
example(e821,f8,positive).
example(e821,f9,positive).
example(e821,f10,negative).
example(e821,f11,negative).
example(e821,f12,positive).
example(e821,f13,negative).
example(e821,f14,positive).
example(e821,f15,negative).
example(e821,f16,positive).
example(e821,f17,negative).
example(e821,f18,negative).
example(e822,f1,positive).
example(e822,f2,negative).
example(e822,f3,positive).
example(e822,f4,negative).
example(e822,f5,positive).
example(e822,f6,negative).
example(e822,f7,negative).
example(e822,f8,positive).
example(e822,f9,positive).
example(e822,f10,negative).
example(e822,f11,negative).
example(e822,f12,positive).
example(e822,f13,negative).
example(e822,f14,positive).
example(e822,f15,negative).
example(e822,f16,negative).
example(e822,f17,negative).
example(e822,f18,positive).
example(e823,f1,positive).
example(e823,f2,negative).
example(e823,f3,positive).
example(e823,f4,negative).
example(e823,f5,positive).
example(e823,f6,negative).
example(e823,f7,negative).
example(e823,f8,positive).
example(e823,f9,positive).
example(e823,f10,negative).
example(e823,f11,negative).
example(e823,f12,positive).
example(e823,f13,negative).
example(e823,f14,negative).
example(e823,f15,negative).
example(e823,f16,positive).
example(e823,f17,negative).
example(e823,f18,positive).
example(e824,f1,positive).
example(e824,f2,negative).
example(e824,f3,positive).
example(e824,f4,negative).
example(e824,f5,positive).
example(e824,f6,negative).
example(e824,f7,negative).
example(e824,f8,positive).
example(e824,f9,negative).
example(e824,f10,negative).
example(e824,f11,negative).
example(e824,f12,positive).
example(e824,f13,negative).
example(e824,f14,positive).
example(e824,f15,negative).
example(e824,f16,positive).
example(e824,f17,positive).
example(e824,f18,negative).
example(e825,f1,positive).
example(e825,f2,negative).
example(e825,f3,positive).
example(e825,f4,negative).
example(e825,f5,positive).
example(e825,f6,negative).
example(e825,f7,negative).
example(e825,f8,positive).
example(e825,f9,negative).
example(e825,f10,negative).
example(e825,f11,negative).
example(e825,f12,positive).
example(e825,f13,negative).
example(e825,f14,positive).
example(e825,f15,positive).
example(e825,f16,negative).
example(e825,f17,negative).
example(e825,f18,positive).
example(e826,f1,positive).
example(e826,f2,negative).
example(e826,f3,positive).
example(e826,f4,negative).
example(e826,f5,positive).
example(e826,f6,negative).
example(e826,f7,negative).
example(e826,f8,positive).
example(e826,f9,negative).
example(e826,f10,negative).
example(e826,f11,negative).
example(e826,f12,positive).
example(e826,f13,negative).
example(e826,f14,positive).
example(e826,f15,negative).
example(e826,f16,negative).
example(e826,f17,negative).
example(e826,f18,negative).
example(e827,f1,positive).
example(e827,f2,negative).
example(e827,f3,positive).
example(e827,f4,negative).
example(e827,f5,positive).
example(e827,f6,negative).
example(e827,f7,negative).
example(e827,f8,positive).
example(e827,f9,negative).
example(e827,f10,negative).
example(e827,f11,negative).
example(e827,f12,positive).
example(e827,f13,positive).
example(e827,f14,negative).
example(e827,f15,negative).
example(e827,f16,positive).
example(e827,f17,negative).
example(e827,f18,positive).
example(e828,f1,positive).
example(e828,f2,negative).
example(e828,f3,positive).
example(e828,f4,negative).
example(e828,f5,positive).
example(e828,f6,negative).
example(e828,f7,negative).
example(e828,f8,positive).
example(e828,f9,negative).
example(e828,f10,negative).
example(e828,f11,negative).
example(e828,f12,positive).
example(e828,f13,negative).
example(e828,f14,negative).
example(e828,f15,negative).
example(e828,f16,positive).
example(e828,f17,negative).
example(e828,f18,negative).
example(e829,f1,positive).
example(e829,f2,negative).
example(e829,f3,positive).
example(e829,f4,negative).
example(e829,f5,positive).
example(e829,f6,negative).
example(e829,f7,negative).
example(e829,f8,positive).
example(e829,f9,negative).
example(e829,f10,negative).
example(e829,f11,negative).
example(e829,f12,positive).
example(e829,f13,negative).
example(e829,f14,negative).
example(e829,f15,negative).
example(e829,f16,negative).
example(e829,f17,negative).
example(e829,f18,positive).
example(e830,f1,positive).
example(e830,f2,negative).
example(e830,f3,positive).
example(e830,f4,negative).
example(e830,f5,positive).
example(e830,f6,negative).
example(e830,f7,negative).
example(e830,f8,positive).
example(e830,f9,negative).
example(e830,f10,negative).
example(e830,f11,negative).
example(e830,f12,negative).
example(e830,f13,negative).
example(e830,f14,positive).
example(e830,f15,negative).
example(e830,f16,positive).
example(e830,f17,negative).
example(e830,f18,negative).
example(e831,f1,positive).
example(e831,f2,negative).
example(e831,f3,positive).
example(e831,f4,negative).
example(e831,f5,positive).
example(e831,f6,negative).
example(e831,f7,negative).
example(e831,f8,positive).
example(e831,f9,negative).
example(e831,f10,negative).
example(e831,f11,negative).
example(e831,f12,negative).
example(e831,f13,negative).
example(e831,f14,positive).
example(e831,f15,negative).
example(e831,f16,negative).
example(e831,f17,negative).
example(e831,f18,positive).
example(e832,f1,positive).
example(e832,f2,negative).
example(e832,f3,positive).
example(e832,f4,negative).
example(e832,f5,positive).
example(e832,f6,negative).
example(e832,f7,negative).
example(e832,f8,positive).
example(e832,f9,negative).
example(e832,f10,negative).
example(e832,f11,negative).
example(e832,f12,negative).
example(e832,f13,negative).
example(e832,f14,negative).
example(e832,f15,negative).
example(e832,f16,positive).
example(e832,f17,negative).
example(e832,f18,positive).
example(e833,f1,positive).
example(e833,f2,negative).
example(e833,f3,positive).
example(e833,f4,negative).
example(e833,f5,positive).
example(e833,f6,negative).
example(e833,f7,positive).
example(e833,f8,negative).
example(e833,f9,negative).
example(e833,f10,positive).
example(e833,f11,negative).
example(e833,f12,positive).
example(e833,f13,negative).
example(e833,f14,positive).
example(e833,f15,negative).
example(e833,f16,positive).
example(e833,f17,negative).
example(e833,f18,negative).
example(e834,f1,positive).
example(e834,f2,negative).
example(e834,f3,positive).
example(e834,f4,negative).
example(e834,f5,positive).
example(e834,f6,negative).
example(e834,f7,positive).
example(e834,f8,negative).
example(e834,f9,negative).
example(e834,f10,positive).
example(e834,f11,negative).
example(e834,f12,positive).
example(e834,f13,negative).
example(e834,f14,positive).
example(e834,f15,negative).
example(e834,f16,negative).
example(e834,f17,negative).
example(e834,f18,positive).
example(e835,f1,positive).
example(e835,f2,negative).
example(e835,f3,positive).
example(e835,f4,negative).
example(e835,f5,positive).
example(e835,f6,negative).
example(e835,f7,positive).
example(e835,f8,negative).
example(e835,f9,negative).
example(e835,f10,positive).
example(e835,f11,negative).
example(e835,f12,positive).
example(e835,f13,negative).
example(e835,f14,negative).
example(e835,f15,negative).
example(e835,f16,positive).
example(e835,f17,negative).
example(e835,f18,positive).
example(e836,f1,positive).
example(e836,f2,negative).
example(e836,f3,positive).
example(e836,f4,negative).
example(e836,f5,positive).
example(e836,f6,negative).
example(e836,f7,negative).
example(e836,f8,negative).
example(e836,f9,negative).
example(e836,f10,positive).
example(e836,f11,negative).
example(e836,f12,positive).
example(e836,f13,negative).
example(e836,f14,positive).
example(e836,f15,negative).
example(e836,f16,positive).
example(e836,f17,positive).
example(e836,f18,negative).
example(e837,f1,positive).
example(e837,f2,negative).
example(e837,f3,positive).
example(e837,f4,negative).
example(e837,f5,positive).
example(e837,f6,negative).
example(e837,f7,negative).
example(e837,f8,negative).
example(e837,f9,negative).
example(e837,f10,positive).
example(e837,f11,negative).
example(e837,f12,positive).
example(e837,f13,negative).
example(e837,f14,positive).
example(e837,f15,positive).
example(e837,f16,negative).
example(e837,f17,negative).
example(e837,f18,positive).
example(e838,f1,positive).
example(e838,f2,negative).
example(e838,f3,positive).
example(e838,f4,negative).
example(e838,f5,positive).
example(e838,f6,negative).
example(e838,f7,negative).
example(e838,f8,negative).
example(e838,f9,negative).
example(e838,f10,positive).
example(e838,f11,negative).
example(e838,f12,positive).
example(e838,f13,negative).
example(e838,f14,positive).
example(e838,f15,negative).
example(e838,f16,negative).
example(e838,f17,negative).
example(e838,f18,negative).
example(e839,f1,positive).
example(e839,f2,negative).
example(e839,f3,positive).
example(e839,f4,negative).
example(e839,f5,positive).
example(e839,f6,negative).
example(e839,f7,negative).
example(e839,f8,negative).
example(e839,f9,negative).
example(e839,f10,positive).
example(e839,f11,negative).
example(e839,f12,positive).
example(e839,f13,positive).
example(e839,f14,negative).
example(e839,f15,negative).
example(e839,f16,positive).
example(e839,f17,negative).
example(e839,f18,positive).
example(e840,f1,positive).
example(e840,f2,negative).
example(e840,f3,positive).
example(e840,f4,negative).
example(e840,f5,positive).
example(e840,f6,negative).
example(e840,f7,negative).
example(e840,f8,negative).
example(e840,f9,negative).
example(e840,f10,positive).
example(e840,f11,negative).
example(e840,f12,positive).
example(e840,f13,negative).
example(e840,f14,negative).
example(e840,f15,negative).
example(e840,f16,positive).
example(e840,f17,negative).
example(e840,f18,negative).
example(e841,f1,positive).
example(e841,f2,negative).
example(e841,f3,positive).
example(e841,f4,negative).
example(e841,f5,positive).
example(e841,f6,negative).
example(e841,f7,negative).
example(e841,f8,negative).
example(e841,f9,negative).
example(e841,f10,positive).
example(e841,f11,negative).
example(e841,f12,positive).
example(e841,f13,negative).
example(e841,f14,negative).
example(e841,f15,negative).
example(e841,f16,negative).
example(e841,f17,negative).
example(e841,f18,positive).
example(e842,f1,positive).
example(e842,f2,negative).
example(e842,f3,positive).
example(e842,f4,negative).
example(e842,f5,positive).
example(e842,f6,negative).
example(e842,f7,negative).
example(e842,f8,negative).
example(e842,f9,negative).
example(e842,f10,positive).
example(e842,f11,negative).
example(e842,f12,negative).
example(e842,f13,negative).
example(e842,f14,positive).
example(e842,f15,negative).
example(e842,f16,positive).
example(e842,f17,negative).
example(e842,f18,negative).
example(e843,f1,positive).
example(e843,f2,negative).
example(e843,f3,positive).
example(e843,f4,negative).
example(e843,f5,positive).
example(e843,f6,negative).
example(e843,f7,negative).
example(e843,f8,negative).
example(e843,f9,negative).
example(e843,f10,positive).
example(e843,f11,negative).
example(e843,f12,negative).
example(e843,f13,negative).
example(e843,f14,positive).
example(e843,f15,negative).
example(e843,f16,negative).
example(e843,f17,negative).
example(e843,f18,positive).
example(e844,f1,positive).
example(e844,f2,negative).
example(e844,f3,positive).
example(e844,f4,negative).
example(e844,f5,positive).
example(e844,f6,negative).
example(e844,f7,negative).
example(e844,f8,negative).
example(e844,f9,negative).
example(e844,f10,positive).
example(e844,f11,negative).
example(e844,f12,negative).
example(e844,f13,negative).
example(e844,f14,negative).
example(e844,f15,negative).
example(e844,f16,positive).
example(e844,f17,negative).
example(e844,f18,positive).
example(e845,f1,positive).
example(e845,f2,negative).
example(e845,f3,positive).
example(e845,f4,negative).
example(e845,f5,positive).
example(e845,f6,negative).
example(e845,f7,negative).
example(e845,f8,negative).
example(e845,f9,negative).
example(e845,f10,negative).
example(e845,f11,negative).
example(e845,f12,positive).
example(e845,f13,negative).
example(e845,f14,positive).
example(e845,f15,negative).
example(e845,f16,positive).
example(e845,f17,negative).
example(e845,f18,negative).
example(e846,f1,positive).
example(e846,f2,negative).
example(e846,f3,positive).
example(e846,f4,negative).
example(e846,f5,positive).
example(e846,f6,negative).
example(e846,f7,negative).
example(e846,f8,negative).
example(e846,f9,negative).
example(e846,f10,negative).
example(e846,f11,negative).
example(e846,f12,positive).
example(e846,f13,negative).
example(e846,f14,positive).
example(e846,f15,negative).
example(e846,f16,negative).
example(e846,f17,negative).
example(e846,f18,positive).
example(e847,f1,positive).
example(e847,f2,negative).
example(e847,f3,positive).
example(e847,f4,negative).
example(e847,f5,positive).
example(e847,f6,negative).
example(e847,f7,negative).
example(e847,f8,negative).
example(e847,f9,negative).
example(e847,f10,negative).
example(e847,f11,negative).
example(e847,f12,positive).
example(e847,f13,negative).
example(e847,f14,negative).
example(e847,f15,negative).
example(e847,f16,positive).
example(e847,f17,negative).
example(e847,f18,positive).
example(e848,f1,positive).
example(e848,f2,negative).
example(e848,f3,positive).
example(e848,f4,negative).
example(e848,f5,negative).
example(e848,f6,negative).
example(e848,f7,negative).
example(e848,f8,positive).
example(e848,f9,positive).
example(e848,f10,negative).
example(e848,f11,negative).
example(e848,f12,positive).
example(e848,f13,negative).
example(e848,f14,positive).
example(e848,f15,negative).
example(e848,f16,positive).
example(e848,f17,positive).
example(e848,f18,negative).
example(e849,f1,positive).
example(e849,f2,negative).
example(e849,f3,positive).
example(e849,f4,negative).
example(e849,f5,negative).
example(e849,f6,negative).
example(e849,f7,negative).
example(e849,f8,positive).
example(e849,f9,positive).
example(e849,f10,negative).
example(e849,f11,negative).
example(e849,f12,positive).
example(e849,f13,negative).
example(e849,f14,positive).
example(e849,f15,positive).
example(e849,f16,negative).
example(e849,f17,negative).
example(e849,f18,positive).
example(e850,f1,positive).
example(e850,f2,negative).
example(e850,f3,positive).
example(e850,f4,negative).
example(e850,f5,negative).
example(e850,f6,negative).
example(e850,f7,positive).
example(e850,f8,negative).
example(e850,f9,negative).
example(e850,f10,positive).
example(e850,f11,negative).
example(e850,f12,positive).
example(e850,f13,positive).
example(e850,f14,negative).
example(e850,f15,negative).
example(e850,f16,positive).
example(e850,f17,negative).
example(e850,f18,positive).
example(e851,f1,positive).
example(e851,f2,negative).
example(e851,f3,negative).
example(e851,f4,negative).
example(e851,f5,negative).
example(e851,f6,positive).
example(e851,f7,negative).
example(e851,f8,positive).
example(e851,f9,positive).
example(e851,f10,negative).
example(e851,f11,negative).
example(e851,f12,positive).
example(e851,f13,negative).
example(e851,f14,positive).
example(e851,f15,positive).
example(e851,f16,negative).
example(e851,f17,positive).
example(e851,f18,negative).
example(e852,f1,positive).
example(e852,f2,negative).
example(e852,f3,negative).
example(e852,f4,negative).
example(e852,f5,negative).
example(e852,f6,positive).
example(e852,f7,negative).
example(e852,f8,positive).
example(e852,f9,positive).
example(e852,f10,negative).
example(e852,f11,negative).
example(e852,f12,positive).
example(e852,f13,positive).
example(e852,f14,negative).
example(e852,f15,negative).
example(e852,f16,positive).
example(e852,f17,positive).
example(e852,f18,negative).
example(e853,f1,positive).
example(e853,f2,negative).
example(e853,f3,negative).
example(e853,f4,negative).
example(e853,f5,negative).
example(e853,f6,positive).
example(e853,f7,negative).
example(e853,f8,positive).
example(e853,f9,positive).
example(e853,f10,negative).
example(e853,f11,negative).
example(e853,f12,positive).
example(e853,f13,negative).
example(e853,f14,negative).
example(e853,f15,negative).
example(e853,f16,negative).
example(e853,f17,positive).
example(e853,f18,negative).
example(e854,f1,positive).
example(e854,f2,negative).
example(e854,f3,negative).
example(e854,f4,negative).
example(e854,f5,negative).
example(e854,f6,positive).
example(e854,f7,negative).
example(e854,f8,positive).
example(e854,f9,positive).
example(e854,f10,negative).
example(e854,f11,positive).
example(e854,f12,negative).
example(e854,f13,negative).
example(e854,f14,positive).
example(e854,f15,negative).
example(e854,f16,positive).
example(e854,f17,positive).
example(e854,f18,negative).
example(e855,f1,positive).
example(e855,f2,negative).
example(e855,f3,negative).
example(e855,f4,negative).
example(e855,f5,negative).
example(e855,f6,positive).
example(e855,f7,negative).
example(e855,f8,positive).
example(e855,f9,positive).
example(e855,f10,negative).
example(e855,f11,negative).
example(e855,f12,negative).
example(e855,f13,negative).
example(e855,f14,positive).
example(e855,f15,negative).
example(e855,f16,negative).
example(e855,f17,positive).
example(e855,f18,negative).
example(e856,f1,positive).
example(e856,f2,negative).
example(e856,f3,negative).
example(e856,f4,negative).
example(e856,f5,negative).
example(e856,f6,positive).
example(e856,f7,negative).
example(e856,f8,positive).
example(e856,f9,positive).
example(e856,f10,negative).
example(e856,f11,negative).
example(e856,f12,negative).
example(e856,f13,negative).
example(e856,f14,negative).
example(e856,f15,negative).
example(e856,f16,positive).
example(e856,f17,positive).
example(e856,f18,negative).
example(e857,f1,positive).
example(e857,f2,negative).
example(e857,f3,negative).
example(e857,f4,negative).
example(e857,f5,negative).
example(e857,f6,positive).
example(e857,f7,positive).
example(e857,f8,negative).
example(e857,f9,negative).
example(e857,f10,positive).
example(e857,f11,negative).
example(e857,f12,positive).
example(e857,f13,positive).
example(e857,f14,negative).
example(e857,f15,negative).
example(e857,f16,positive).
example(e857,f17,positive).
example(e857,f18,negative).
example(e858,f1,positive).
example(e858,f2,negative).
example(e858,f3,negative).
example(e858,f4,negative).
example(e858,f5,negative).
example(e858,f6,positive).
example(e858,f7,positive).
example(e858,f8,negative).
example(e858,f9,negative).
example(e858,f10,positive).
example(e858,f11,negative).
example(e858,f12,positive).
example(e858,f13,positive).
example(e858,f14,negative).
example(e858,f15,negative).
example(e858,f16,negative).
example(e858,f17,negative).
example(e858,f18,negative).
example(e859,f1,positive).
example(e859,f2,negative).
example(e859,f3,negative).
example(e859,f4,negative).
example(e859,f5,negative).
example(e859,f6,positive).
example(e859,f7,positive).
example(e859,f8,negative).
example(e859,f9,negative).
example(e859,f10,positive).
example(e859,f11,positive).
example(e859,f12,negative).
example(e859,f13,positive).
example(e859,f14,negative).
example(e859,f15,negative).
example(e859,f16,positive).
example(e859,f17,negative).
example(e859,f18,positive).
example(e860,f1,positive).
example(e860,f2,negative).
example(e860,f3,negative).
example(e860,f4,negative).
example(e860,f5,negative).
example(e860,f6,positive).
example(e860,f7,positive).
example(e860,f8,negative).
example(e860,f9,negative).
example(e860,f10,positive).
example(e860,f11,negative).
example(e860,f12,negative).
example(e860,f13,positive).
example(e860,f14,negative).
example(e860,f15,negative).
example(e860,f16,positive).
example(e860,f17,negative).
example(e860,f18,negative).
example(e861,f1,positive).
example(e861,f2,negative).
example(e861,f3,negative).
example(e861,f4,negative).
example(e861,f5,negative).
example(e861,f6,positive).
example(e861,f7,positive).
example(e861,f8,negative).
example(e861,f9,negative).
example(e861,f10,positive).
example(e861,f11,negative).
example(e861,f12,negative).
example(e861,f13,positive).
example(e861,f14,negative).
example(e861,f15,negative).
example(e861,f16,negative).
example(e861,f17,negative).
example(e861,f18,positive).
example(e862,f1,positive).
example(e862,f2,negative).
example(e862,f3,negative).
example(e862,f4,negative).
example(e862,f5,negative).
example(e862,f6,positive).
example(e862,f7,positive).
example(e862,f8,negative).
example(e862,f9,positive).
example(e862,f10,negative).
example(e862,f11,negative).
example(e862,f12,positive).
example(e862,f13,negative).
example(e862,f14,positive).
example(e862,f15,negative).
example(e862,f16,positive).
example(e862,f17,positive).
example(e862,f18,negative).
example(e863,f1,positive).
example(e863,f2,negative).
example(e863,f3,negative).
example(e863,f4,negative).
example(e863,f5,negative).
example(e863,f6,positive).
example(e863,f7,positive).
example(e863,f8,negative).
example(e863,f9,negative).
example(e863,f10,negative).
example(e863,f11,negative).
example(e863,f12,positive).
example(e863,f13,positive).
example(e863,f14,negative).
example(e863,f15,negative).
example(e863,f16,positive).
example(e863,f17,negative).
example(e863,f18,negative).
example(e864,f1,positive).
example(e864,f2,negative).
example(e864,f3,negative).
example(e864,f4,negative).
example(e864,f5,negative).
example(e864,f6,positive).
example(e864,f7,positive).
example(e864,f8,negative).
example(e864,f9,negative).
example(e864,f10,negative).
example(e864,f11,negative).
example(e864,f12,negative).
example(e864,f13,positive).
example(e864,f14,negative).
example(e864,f15,negative).
example(e864,f16,positive).
example(e864,f17,negative).
example(e864,f18,positive).
example(e865,f1,positive).
example(e865,f2,negative).
example(e865,f3,negative).
example(e865,f4,negative).
example(e865,f5,negative).
example(e865,f6,positive).
example(e865,f7,negative).
example(e865,f8,negative).
example(e865,f9,positive).
example(e865,f10,negative).
example(e865,f11,negative).
example(e865,f12,positive).
example(e865,f13,negative).
example(e865,f14,positive).
example(e865,f15,negative).
example(e865,f16,negative).
example(e865,f17,positive).
example(e865,f18,negative).
example(e866,f1,positive).
example(e866,f2,negative).
example(e866,f3,negative).
example(e866,f4,negative).
example(e866,f5,negative).
example(e866,f6,positive).
example(e866,f7,negative).
example(e866,f8,negative).
example(e866,f9,positive).
example(e866,f10,negative).
example(e866,f11,negative).
example(e866,f12,positive).
example(e866,f13,negative).
example(e866,f14,negative).
example(e866,f15,negative).
example(e866,f16,positive).
example(e866,f17,positive).
example(e866,f18,negative).
example(e867,f1,positive).
example(e867,f2,negative).
example(e867,f3,negative).
example(e867,f4,negative).
example(e867,f5,negative).
example(e867,f6,positive).
example(e867,f7,negative).
example(e867,f8,negative).
example(e867,f9,positive).
example(e867,f10,negative).
example(e867,f11,negative).
example(e867,f12,negative).
example(e867,f13,negative).
example(e867,f14,positive).
example(e867,f15,negative).
example(e867,f16,positive).
example(e867,f17,positive).
example(e867,f18,negative).
example(e868,f1,positive).
example(e868,f2,negative).
example(e868,f3,negative).
example(e868,f4,negative).
example(e868,f5,positive).
example(e868,f6,negative).
example(e868,f7,negative).
example(e868,f8,positive).
example(e868,f9,negative).
example(e868,f10,positive).
example(e868,f11,positive).
example(e868,f12,negative).
example(e868,f13,negative).
example(e868,f14,positive).
example(e868,f15,negative).
example(e868,f16,positive).
example(e868,f17,positive).
example(e868,f18,negative).
example(e869,f1,positive).
example(e869,f2,negative).
example(e869,f3,negative).
example(e869,f4,negative).
example(e869,f5,positive).
example(e869,f6,negative).
example(e869,f7,negative).
example(e869,f8,positive).
example(e869,f9,positive).
example(e869,f10,negative).
example(e869,f11,negative).
example(e869,f12,positive).
example(e869,f13,negative).
example(e869,f14,positive).
example(e869,f15,negative).
example(e869,f16,positive).
example(e869,f17,positive).
example(e869,f18,negative).
example(e870,f1,positive).
example(e870,f2,negative).
example(e870,f3,negative).
example(e870,f4,negative).
example(e870,f5,positive).
example(e870,f6,negative).
example(e870,f7,negative).
example(e870,f8,positive).
example(e870,f9,positive).
example(e870,f10,negative).
example(e870,f11,negative).
example(e870,f12,positive).
example(e870,f13,positive).
example(e870,f14,negative).
example(e870,f15,negative).
example(e870,f16,positive).
example(e870,f17,negative).
example(e870,f18,positive).
example(e871,f1,positive).
example(e871,f2,negative).
example(e871,f3,negative).
example(e871,f4,negative).
example(e871,f5,positive).
example(e871,f6,negative).
example(e871,f7,positive).
example(e871,f8,negative).
example(e871,f9,negative).
example(e871,f10,positive).
example(e871,f11,negative).
example(e871,f12,positive).
example(e871,f13,positive).
example(e871,f14,negative).
example(e871,f15,negative).
example(e871,f16,positive).
example(e871,f17,negative).
example(e871,f18,positive).
example(e872,f1,positive).
example(e872,f2,negative).
example(e872,f3,negative).
example(e872,f4,negative).
example(e872,f5,negative).
example(e872,f6,negative).
example(e872,f7,negative).
example(e872,f8,positive).
example(e872,f9,positive).
example(e872,f10,negative).
example(e872,f11,negative).
example(e872,f12,positive).
example(e872,f13,negative).
example(e872,f14,positive).
example(e872,f15,negative).
example(e872,f16,negative).
example(e872,f17,positive).
example(e872,f18,negative).
example(e873,f1,positive).
example(e873,f2,negative).
example(e873,f3,negative).
example(e873,f4,negative).
example(e873,f5,negative).
example(e873,f6,negative).
example(e873,f7,negative).
example(e873,f8,positive).
example(e873,f9,positive).
example(e873,f10,negative).
example(e873,f11,negative).
example(e873,f12,positive).
example(e873,f13,negative).
example(e873,f14,negative).
example(e873,f15,negative).
example(e873,f16,positive).
example(e873,f17,positive).
example(e873,f18,negative).
example(e874,f1,positive).
example(e874,f2,negative).
example(e874,f3,negative).
example(e874,f4,negative).
example(e874,f5,negative).
example(e874,f6,negative).
example(e874,f7,negative).
example(e874,f8,positive).
example(e874,f9,positive).
example(e874,f10,negative).
example(e874,f11,negative).
example(e874,f12,negative).
example(e874,f13,negative).
example(e874,f14,positive).
example(e874,f15,negative).
example(e874,f16,positive).
example(e874,f17,positive).
example(e874,f18,negative).
example(e875,f1,positive).
example(e875,f2,negative).
example(e875,f3,negative).
example(e875,f4,negative).
example(e875,f5,negative).
example(e875,f6,negative).
example(e875,f7,positive).
example(e875,f8,negative).
example(e875,f9,negative).
example(e875,f10,positive).
example(e875,f11,negative).
example(e875,f12,positive).
example(e875,f13,positive).
example(e875,f14,negative).
example(e875,f15,negative).
example(e875,f16,positive).
example(e875,f17,negative).
example(e875,f18,negative).
example(e876,f1,positive).
example(e876,f2,negative).
example(e876,f3,negative).
example(e876,f4,negative).
example(e876,f5,negative).
example(e876,f6,negative).
example(e876,f7,positive).
example(e876,f8,negative).
example(e876,f9,negative).
example(e876,f10,positive).
example(e876,f11,negative).
example(e876,f12,positive).
example(e876,f13,positive).
example(e876,f14,negative).
example(e876,f15,negative).
example(e876,f16,negative).
example(e876,f17,negative).
example(e876,f18,positive).
example(e877,f1,positive).
example(e877,f2,negative).
example(e877,f3,negative).
example(e877,f4,negative).
example(e877,f5,negative).
example(e877,f6,negative).
example(e877,f7,positive).
example(e877,f8,negative).
example(e877,f9,negative).
example(e877,f10,positive).
example(e877,f11,negative).
example(e877,f12,negative).
example(e877,f13,positive).
example(e877,f14,negative).
example(e877,f15,negative).
example(e877,f16,positive).
example(e877,f17,negative).
example(e877,f18,positive).
example(e878,f1,positive).
example(e878,f2,negative).
example(e878,f3,negative).
example(e878,f4,negative).
example(e878,f5,negative).
example(e878,f6,negative).
example(e878,f7,positive).
example(e878,f8,negative).
example(e878,f9,negative).
example(e878,f10,negative).
example(e878,f11,negative).
example(e878,f12,positive).
example(e878,f13,positive).
example(e878,f14,negative).
example(e878,f15,negative).
example(e878,f16,positive).
example(e878,f17,negative).
example(e878,f18,positive).
example(e879,f1,positive).
example(e879,f2,negative).
example(e879,f3,negative).
example(e879,f4,negative).
example(e879,f5,negative).
example(e879,f6,negative).
example(e879,f7,negative).
example(e879,f8,negative).
example(e879,f9,positive).
example(e879,f10,negative).
example(e879,f11,negative).
example(e879,f12,positive).
example(e879,f13,negative).
example(e879,f14,positive).
example(e879,f15,negative).
example(e879,f16,positive).
example(e879,f17,positive).
example(e879,f18,negative).
example(e880,f1,negative).
example(e880,f2,negative).
example(e880,f3,negative).
example(e880,f4,positive).
example(e880,f5,negative).
example(e880,f6,positive).
example(e880,f7,negative).
example(e880,f8,positive).
example(e880,f9,negative).
example(e880,f10,positive).
example(e880,f11,positive).
example(e880,f12,negative).
example(e880,f13,positive).
example(e880,f14,negative).
example(e880,f15,positive).
example(e880,f16,negative).
example(e880,f17,positive).
example(e880,f18,negative).
example(e881,f1,negative).
example(e881,f2,negative).
example(e881,f3,negative).
example(e881,f4,positive).
example(e881,f5,negative).
example(e881,f6,positive).
example(e881,f7,negative).
example(e881,f8,positive).
example(e881,f9,positive).
example(e881,f10,negative).
example(e881,f11,negative).
example(e881,f12,positive).
example(e881,f13,positive).
example(e881,f14,negative).
example(e881,f15,positive).
example(e881,f16,negative).
example(e881,f17,positive).
example(e881,f18,negative).
example(e882,f1,negative).
example(e882,f2,negative).
example(e882,f3,negative).
example(e882,f4,positive).
example(e882,f5,negative).
example(e882,f6,positive).
example(e882,f7,negative).
example(e882,f8,positive).
example(e882,f9,negative).
example(e882,f10,negative).
example(e882,f11,negative).
example(e882,f12,negative).
example(e882,f13,positive).
example(e882,f14,negative).
example(e882,f15,positive).
example(e882,f16,negative).
example(e882,f17,positive).
example(e882,f18,negative).
example(e883,f1,negative).
example(e883,f2,negative).
example(e883,f3,negative).
example(e883,f4,positive).
example(e883,f5,negative).
example(e883,f6,positive).
example(e883,f7,positive).
example(e883,f8,negative).
example(e883,f9,negative).
example(e883,f10,positive).
example(e883,f11,negative).
example(e883,f12,positive).
example(e883,f13,positive).
example(e883,f14,negative).
example(e883,f15,positive).
example(e883,f16,negative).
example(e883,f17,positive).
example(e883,f18,negative).
example(e884,f1,negative).
example(e884,f2,negative).
example(e884,f3,negative).
example(e884,f4,positive).
example(e884,f5,negative).
example(e884,f6,positive).
example(e884,f7,positive).
example(e884,f8,negative).
example(e884,f9,positive).
example(e884,f10,negative).
example(e884,f11,positive).
example(e884,f12,negative).
example(e884,f13,negative).
example(e884,f14,positive).
example(e884,f15,negative).
example(e884,f16,positive).
example(e884,f17,positive).
example(e884,f18,negative).
example(e885,f1,negative).
example(e885,f2,negative).
example(e885,f3,negative).
example(e885,f4,positive).
example(e885,f5,negative).
example(e885,f6,positive).
example(e885,f7,positive).
example(e885,f8,negative).
example(e885,f9,positive).
example(e885,f10,negative).
example(e885,f11,positive).
example(e885,f12,negative).
example(e885,f13,negative).
example(e885,f14,positive).
example(e885,f15,positive).
example(e885,f16,negative).
example(e885,f17,negative).
example(e885,f18,positive).
example(e886,f1,negative).
example(e886,f2,negative).
example(e886,f3,negative).
example(e886,f4,positive).
example(e886,f5,negative).
example(e886,f6,positive).
example(e886,f7,positive).
example(e886,f8,negative).
example(e886,f9,positive).
example(e886,f10,negative).
example(e886,f11,positive).
example(e886,f12,negative).
example(e886,f13,negative).
example(e886,f14,positive).
example(e886,f15,negative).
example(e886,f16,negative).
example(e886,f17,negative).
example(e886,f18,negative).
example(e887,f1,negative).
example(e887,f2,negative).
example(e887,f3,negative).
example(e887,f4,positive).
example(e887,f5,negative).
example(e887,f6,positive).
example(e887,f7,positive).
example(e887,f8,negative).
example(e887,f9,positive).
example(e887,f10,negative).
example(e887,f11,positive).
example(e887,f12,negative).
example(e887,f13,positive).
example(e887,f14,negative).
example(e887,f15,negative).
example(e887,f16,positive).
example(e887,f17,negative).
example(e887,f18,positive).
example(e888,f1,negative).
example(e888,f2,negative).
example(e888,f3,negative).
example(e888,f4,positive).
example(e888,f5,negative).
example(e888,f6,positive).
example(e888,f7,positive).
example(e888,f8,negative).
example(e888,f9,positive).
example(e888,f10,negative).
example(e888,f11,positive).
example(e888,f12,negative).
example(e888,f13,negative).
example(e888,f14,negative).
example(e888,f15,negative).
example(e888,f16,positive).
example(e888,f17,negative).
example(e888,f18,negative).
example(e889,f1,negative).
example(e889,f2,negative).
example(e889,f3,negative).
example(e889,f4,positive).
example(e889,f5,negative).
example(e889,f6,positive).
example(e889,f7,positive).
example(e889,f8,negative).
example(e889,f9,positive).
example(e889,f10,negative).
example(e889,f11,positive).
example(e889,f12,negative).
example(e889,f13,negative).
example(e889,f14,negative).
example(e889,f15,negative).
example(e889,f16,negative).
example(e889,f17,negative).
example(e889,f18,positive).
example(e890,f1,negative).
example(e890,f2,negative).
example(e890,f3,negative).
example(e890,f4,positive).
example(e890,f5,negative).
example(e890,f6,positive).
example(e890,f7,negative).
example(e890,f8,negative).
example(e890,f9,negative).
example(e890,f10,positive).
example(e890,f11,negative).
example(e890,f12,negative).
example(e890,f13,positive).
example(e890,f14,negative).
example(e890,f15,positive).
example(e890,f16,negative).
example(e890,f17,positive).
example(e890,f18,negative).
example(e891,f1,negative).
example(e891,f2,negative).
example(e891,f3,negative).
example(e891,f4,positive).
example(e891,f5,negative).
example(e891,f6,positive).
example(e891,f7,negative).
example(e891,f8,negative).
example(e891,f9,negative).
example(e891,f10,negative).
example(e891,f11,negative).
example(e891,f12,positive).
example(e891,f13,positive).
example(e891,f14,negative).
example(e891,f15,positive).
example(e891,f16,negative).
example(e891,f17,positive).
example(e891,f18,negative).
example(e892,f1,negative).
example(e892,f2,negative).
example(e892,f3,negative).
example(e892,f4,positive).
example(e892,f5,positive).
example(e892,f6,negative).
example(e892,f7,negative).
example(e892,f8,positive).
example(e892,f9,negative).
example(e892,f10,positive).
example(e892,f11,positive).
example(e892,f12,negative).
example(e892,f13,negative).
example(e892,f14,positive).
example(e892,f15,positive).
example(e892,f16,negative).
example(e892,f17,positive).
example(e892,f18,negative).
example(e893,f1,negative).
example(e893,f2,negative).
example(e893,f3,negative).
example(e893,f4,positive).
example(e893,f5,positive).
example(e893,f6,negative).
example(e893,f7,negative).
example(e893,f8,positive).
example(e893,f9,negative).
example(e893,f10,positive).
example(e893,f11,positive).
example(e893,f12,negative).
example(e893,f13,negative).
example(e893,f14,negative).
example(e893,f15,negative).
example(e893,f16,negative).
example(e893,f17,positive).
example(e893,f18,negative).
example(e894,f1,negative).
example(e894,f2,negative).
example(e894,f3,negative).
example(e894,f4,positive).
example(e894,f5,positive).
example(e894,f6,negative).
example(e894,f7,negative).
example(e894,f8,positive).
example(e894,f9,positive).
example(e894,f10,negative).
example(e894,f11,negative).
example(e894,f12,positive).
example(e894,f13,positive).
example(e894,f14,negative).
example(e894,f15,negative).
example(e894,f16,positive).
example(e894,f17,positive).
example(e894,f18,negative).
example(e895,f1,negative).
example(e895,f2,negative).
example(e895,f3,negative).
example(e895,f4,positive).
example(e895,f5,positive).
example(e895,f6,negative).
example(e895,f7,negative).
example(e895,f8,positive).
example(e895,f9,positive).
example(e895,f10,negative).
example(e895,f11,negative).
example(e895,f12,positive).
example(e895,f13,positive).
example(e895,f14,negative).
example(e895,f15,positive).
example(e895,f16,negative).
example(e895,f17,negative).
example(e895,f18,positive).
example(e896,f1,negative).
example(e896,f2,negative).
example(e896,f3,negative).
example(e896,f4,positive).
example(e896,f5,positive).
example(e896,f6,negative).
example(e896,f7,negative).
example(e896,f8,positive).
example(e896,f9,positive).
example(e896,f10,negative).
example(e896,f11,negative).
example(e896,f12,positive).
example(e896,f13,positive).
example(e896,f14,negative).
example(e896,f15,negative).
example(e896,f16,negative).
example(e896,f17,negative).
example(e896,f18,negative).
example(e897,f1,negative).
example(e897,f2,negative).
example(e897,f3,negative).
example(e897,f4,positive).
example(e897,f5,positive).
example(e897,f6,negative).
example(e897,f7,negative).
example(e897,f8,positive).
example(e897,f9,positive).
example(e897,f10,negative).
example(e897,f11,positive).
example(e897,f12,negative).
example(e897,f13,negative).
example(e897,f14,positive).
example(e897,f15,negative).
example(e897,f16,positive).
example(e897,f17,positive).
example(e897,f18,negative).
example(e898,f1,negative).
example(e898,f2,negative).
example(e898,f3,negative).
example(e898,f4,positive).
example(e898,f5,positive).
example(e898,f6,negative).
example(e898,f7,negative).
example(e898,f8,positive).
example(e898,f9,positive).
example(e898,f10,negative).
example(e898,f11,positive).
example(e898,f12,negative).
example(e898,f13,positive).
example(e898,f14,negative).
example(e898,f15,negative).
example(e898,f16,positive).
example(e898,f17,negative).
example(e898,f18,positive).
example(e899,f1,negative).
example(e899,f2,negative).
example(e899,f3,negative).
example(e899,f4,positive).
example(e899,f5,positive).
example(e899,f6,negative).
example(e899,f7,negative).
example(e899,f8,positive).
example(e899,f9,positive).
example(e899,f10,negative).
example(e899,f11,negative).
example(e899,f12,negative).
example(e899,f13,positive).
example(e899,f14,negative).
example(e899,f15,negative).
example(e899,f16,positive).
example(e899,f17,negative).
example(e899,f18,negative).
example(e900,f1,negative).
example(e900,f2,negative).
example(e900,f3,negative).
example(e900,f4,positive).
example(e900,f5,positive).
example(e900,f6,negative).
example(e900,f7,negative).
example(e900,f8,positive).
example(e900,f9,positive).
example(e900,f10,negative).
example(e900,f11,negative).
example(e900,f12,negative).
example(e900,f13,positive).
example(e900,f14,negative).
example(e900,f15,negative).
example(e900,f16,negative).
example(e900,f17,negative).
example(e900,f18,positive).
example(e901,f1,negative).
example(e901,f2,negative).
example(e901,f3,negative).
example(e901,f4,positive).
example(e901,f5,positive).
example(e901,f6,negative).
example(e901,f7,negative).
example(e901,f8,positive).
example(e901,f9,negative).
example(e901,f10,negative).
example(e901,f11,positive).
example(e901,f12,negative).
example(e901,f13,negative).
example(e901,f14,positive).
example(e901,f15,negative).
example(e901,f16,negative).
example(e901,f17,positive).
example(e901,f18,negative).
example(e902,f1,negative).
example(e902,f2,negative).
example(e902,f3,negative).
example(e902,f4,positive).
example(e902,f5,positive).
example(e902,f6,negative).
example(e902,f7,negative).
example(e902,f8,positive).
example(e902,f9,negative).
example(e902,f10,negative).
example(e902,f11,positive).
example(e902,f12,negative).
example(e902,f13,negative).
example(e902,f14,negative).
example(e902,f15,negative).
example(e902,f16,positive).
example(e902,f17,positive).
example(e902,f18,negative).
example(e903,f1,negative).
example(e903,f2,negative).
example(e903,f3,negative).
example(e903,f4,positive).
example(e903,f5,positive).
example(e903,f6,negative).
example(e903,f7,positive).
example(e903,f8,negative).
example(e903,f9,positive).
example(e903,f10,negative).
example(e903,f11,negative).
example(e903,f12,positive).
example(e903,f13,positive).
example(e903,f14,negative).
example(e903,f15,negative).
example(e903,f16,positive).
example(e903,f17,negative).
example(e903,f18,positive).
example(e904,f1,negative).
example(e904,f2,negative).
example(e904,f3,negative).
example(e904,f4,positive).
example(e904,f5,positive).
example(e904,f6,negative).
example(e904,f7,negative).
example(e904,f8,negative).
example(e904,f9,negative).
example(e904,f10,positive).
example(e904,f11,positive).
example(e904,f12,negative).
example(e904,f13,negative).
example(e904,f14,positive).
example(e904,f15,negative).
example(e904,f16,negative).
example(e904,f17,positive).
example(e904,f18,negative).
example(e905,f1,negative).
example(e905,f2,negative).
example(e905,f3,negative).
example(e905,f4,positive).
example(e905,f5,positive).
example(e905,f6,negative).
example(e905,f7,negative).
example(e905,f8,negative).
example(e905,f9,positive).
example(e905,f10,negative).
example(e905,f11,negative).
example(e905,f12,positive).
example(e905,f13,positive).
example(e905,f14,negative).
example(e905,f15,negative).
example(e905,f16,positive).
example(e905,f17,negative).
example(e905,f18,negative).
example(e906,f1,negative).
example(e906,f2,negative).
example(e906,f3,negative).
example(e906,f4,positive).
example(e906,f5,positive).
example(e906,f6,negative).
example(e906,f7,negative).
example(e906,f8,negative).
example(e906,f9,positive).
example(e906,f10,negative).
example(e906,f11,negative).
example(e906,f12,positive).
example(e906,f13,positive).
example(e906,f14,negative).
example(e906,f15,negative).
example(e906,f16,negative).
example(e906,f17,negative).
example(e906,f18,positive).
example(e907,f1,negative).
example(e907,f2,negative).
example(e907,f3,negative).
example(e907,f4,positive).
example(e907,f5,positive).
example(e907,f6,negative).
example(e907,f7,negative).
example(e907,f8,negative).
example(e907,f9,positive).
example(e907,f10,negative).
example(e907,f11,negative).
example(e907,f12,negative).
example(e907,f13,positive).
example(e907,f14,negative).
example(e907,f15,negative).
example(e907,f16,positive).
example(e907,f17,negative).
example(e907,f18,positive).
example(e908,f1,negative).
example(e908,f2,negative).
example(e908,f3,negative).
example(e908,f4,positive).
example(e908,f5,positive).
example(e908,f6,negative).
example(e908,f7,negative).
example(e908,f8,negative).
example(e908,f9,negative).
example(e908,f10,negative).
example(e908,f11,positive).
example(e908,f12,negative).
example(e908,f13,negative).
example(e908,f14,positive).
example(e908,f15,negative).
example(e908,f16,positive).
example(e908,f17,positive).
example(e908,f18,negative).
example(e909,f1,negative).
example(e909,f2,negative).
example(e909,f3,negative).
example(e909,f4,positive).
example(e909,f5,negative).
example(e909,f6,negative).
example(e909,f7,negative).
example(e909,f8,positive).
example(e909,f9,negative).
example(e909,f10,positive).
example(e909,f11,negative).
example(e909,f12,negative).
example(e909,f13,positive).
example(e909,f14,negative).
example(e909,f15,positive).
example(e909,f16,negative).
example(e909,f17,positive).
example(e909,f18,negative).
example(e910,f1,negative).
example(e910,f2,negative).
example(e910,f3,negative).
example(e910,f4,positive).
example(e910,f5,negative).
example(e910,f6,negative).
example(e910,f7,negative).
example(e910,f8,positive).
example(e910,f9,negative).
example(e910,f10,negative).
example(e910,f11,negative).
example(e910,f12,positive).
example(e910,f13,positive).
example(e910,f14,negative).
example(e910,f15,positive).
example(e910,f16,negative).
example(e910,f17,positive).
example(e910,f18,negative).
example(e911,f1,negative).
example(e911,f2,negative).
example(e911,f3,negative).
example(e911,f4,positive).
example(e911,f5,negative).
example(e911,f6,negative).
example(e911,f7,positive).
example(e911,f8,negative).
example(e911,f9,positive).
example(e911,f10,negative).
example(e911,f11,positive).
example(e911,f12,negative).
example(e911,f13,negative).
example(e911,f14,positive).
example(e911,f15,negative).
example(e911,f16,positive).
example(e911,f17,negative).
example(e911,f18,negative).
example(e912,f1,negative).
example(e912,f2,negative).
example(e912,f3,negative).
example(e912,f4,positive).
example(e912,f5,negative).
example(e912,f6,negative).
example(e912,f7,positive).
example(e912,f8,negative).
example(e912,f9,positive).
example(e912,f10,negative).
example(e912,f11,positive).
example(e912,f12,negative).
example(e912,f13,negative).
example(e912,f14,positive).
example(e912,f15,negative).
example(e912,f16,negative).
example(e912,f17,negative).
example(e912,f18,positive).
example(e913,f1,negative).
example(e913,f2,negative).
example(e913,f3,negative).
example(e913,f4,positive).
example(e913,f5,negative).
example(e913,f6,negative).
example(e913,f7,positive).
example(e913,f8,negative).
example(e913,f9,positive).
example(e913,f10,negative).
example(e913,f11,positive).
example(e913,f12,negative).
example(e913,f13,negative).
example(e913,f14,negative).
example(e913,f15,negative).
example(e913,f16,positive).
example(e913,f17,negative).
example(e913,f18,positive).
example(e914,f1,negative).
example(e914,f2,negative).
example(e914,f3,negative).
example(e914,f4,positive).
example(e914,f5,negative).
example(e914,f6,negative).
example(e914,f7,negative).
example(e914,f8,negative).
example(e914,f9,negative).
example(e914,f10,positive).
example(e914,f11,negative).
example(e914,f12,positive).
example(e914,f13,positive).
example(e914,f14,negative).
example(e914,f15,positive).
example(e914,f16,negative).
example(e914,f17,positive).
example(e914,f18,negative).
example(e915,f1,negative).
example(e915,f2,negative).
example(e915,f3,positive).
example(e915,f4,negative).
example(e915,f5,negative).
example(e915,f6,positive).
example(e915,f7,negative).
example(e915,f8,positive).
example(e915,f9,positive).
example(e915,f10,negative).
example(e915,f11,negative).
example(e915,f12,positive).
example(e915,f13,negative).
example(e915,f14,positive).
example(e915,f15,positive).
example(e915,f16,negative).
example(e915,f17,positive).
example(e915,f18,negative).
example(e916,f1,negative).
example(e916,f2,negative).
example(e916,f3,positive).
example(e916,f4,negative).
example(e916,f5,negative).
example(e916,f6,positive).
example(e916,f7,negative).
example(e916,f8,positive).
example(e916,f9,positive).
example(e916,f10,negative).
example(e916,f11,negative).
example(e916,f12,positive).
example(e916,f13,negative).
example(e916,f14,negative).
example(e916,f15,positive).
example(e916,f16,negative).
example(e916,f17,negative).
example(e916,f18,negative).
example(e917,f1,negative).
example(e917,f2,negative).
example(e917,f3,positive).
example(e917,f4,negative).
example(e917,f5,negative).
example(e917,f6,positive).
example(e917,f7,negative).
example(e917,f8,positive).
example(e917,f9,positive).
example(e917,f10,negative).
example(e917,f11,positive).
example(e917,f12,negative).
example(e917,f13,negative).
example(e917,f14,positive).
example(e917,f15,positive).
example(e917,f16,negative).
example(e917,f17,negative).
example(e917,f18,positive).
example(e918,f1,negative).
example(e918,f2,negative).
example(e918,f3,positive).
example(e918,f4,negative).
example(e918,f5,negative).
example(e918,f6,positive).
example(e918,f7,negative).
example(e918,f8,positive).
example(e918,f9,positive).
example(e918,f10,negative).
example(e918,f11,negative).
example(e918,f12,negative).
example(e918,f13,negative).
example(e918,f14,positive).
example(e918,f15,positive).
example(e918,f16,negative).
example(e918,f17,negative).
example(e918,f18,negative).
example(e919,f1,negative).
example(e919,f2,negative).
example(e919,f3,positive).
example(e919,f4,negative).
example(e919,f5,negative).
example(e919,f6,positive).
example(e919,f7,negative).
example(e919,f8,positive).
example(e919,f9,positive).
example(e919,f10,negative).
example(e919,f11,negative).
example(e919,f12,negative).
example(e919,f13,negative).
example(e919,f14,negative).
example(e919,f15,positive).
example(e919,f16,negative).
example(e919,f17,negative).
example(e919,f18,positive).
example(e920,f1,negative).
example(e920,f2,negative).
example(e920,f3,positive).
example(e920,f4,negative).
example(e920,f5,negative).
example(e920,f6,positive).
example(e920,f7,negative).
example(e920,f8,negative).
example(e920,f9,positive).
example(e920,f10,negative).
example(e920,f11,negative).
example(e920,f12,positive).
example(e920,f13,negative).
example(e920,f14,positive).
example(e920,f15,positive).
example(e920,f16,negative).
example(e920,f17,negative).
example(e920,f18,negative).
example(e921,f1,negative).
example(e921,f2,negative).
example(e921,f3,positive).
example(e921,f4,negative).
example(e921,f5,negative).
example(e921,f6,positive).
example(e921,f7,negative).
example(e921,f8,negative).
example(e921,f9,positive).
example(e921,f10,negative).
example(e921,f11,negative).
example(e921,f12,negative).
example(e921,f13,negative).
example(e921,f14,positive).
example(e921,f15,positive).
example(e921,f16,negative).
example(e921,f17,negative).
example(e921,f18,positive).
example(e922,f1,negative).
example(e922,f2,negative).
example(e922,f3,positive).
example(e922,f4,negative).
example(e922,f5,positive).
example(e922,f6,negative).
example(e922,f7,negative).
example(e922,f8,positive).
example(e922,f9,negative).
example(e922,f10,positive).
example(e922,f11,positive).
example(e922,f12,negative).
example(e922,f13,negative).
example(e922,f14,positive).
example(e922,f15,negative).
example(e922,f16,positive).
example(e922,f17,positive).
example(e922,f18,negative).
example(e923,f1,negative).
example(e923,f2,negative).
example(e923,f3,positive).
example(e923,f4,negative).
example(e923,f5,positive).
example(e923,f6,negative).
example(e923,f7,negative).
example(e923,f8,positive).
example(e923,f9,positive).
example(e923,f10,negative).
example(e923,f11,negative).
example(e923,f12,positive).
example(e923,f13,negative).
example(e923,f14,positive).
example(e923,f15,positive).
example(e923,f16,negative).
example(e923,f17,negative).
example(e923,f18,positive).
example(e924,f1,negative).
example(e924,f2,negative).
example(e924,f3,positive).
example(e924,f4,negative).
example(e924,f5,positive).
example(e924,f6,negative).
example(e924,f7,negative).
example(e924,f8,positive).
example(e924,f9,positive).
example(e924,f10,negative).
example(e924,f11,negative).
example(e924,f12,positive).
example(e924,f13,positive).
example(e924,f14,negative).
example(e924,f15,negative).
example(e924,f16,positive).
example(e924,f17,negative).
example(e924,f18,positive).
example(e925,f1,negative).
example(e925,f2,negative).
example(e925,f3,positive).
example(e925,f4,negative).
example(e925,f5,negative).
example(e925,f6,negative).
example(e925,f7,negative).
example(e925,f8,positive).
example(e925,f9,positive).
example(e925,f10,negative).
example(e925,f11,negative).
example(e925,f12,positive).
example(e925,f13,negative).
example(e925,f14,positive).
example(e925,f15,positive).
example(e925,f16,negative).
example(e925,f17,negative).
example(e925,f18,negative).
example(e926,f1,negative).
example(e926,f2,negative).
example(e926,f3,positive).
example(e926,f4,negative).
example(e926,f5,negative).
example(e926,f6,negative).
example(e926,f7,negative).
example(e926,f8,positive).
example(e926,f9,positive).
example(e926,f10,negative).
example(e926,f11,negative).
example(e926,f12,positive).
example(e926,f13,negative).
example(e926,f14,negative).
example(e926,f15,positive).
example(e926,f16,negative).
example(e926,f17,negative).
example(e926,f18,positive).
example(e927,f1,negative).
example(e927,f2,negative).
example(e927,f3,positive).
example(e927,f4,negative).
example(e927,f5,negative).
example(e927,f6,negative).
example(e927,f7,negative).
example(e927,f8,positive).
example(e927,f9,positive).
example(e927,f10,negative).
example(e927,f11,negative).
example(e927,f12,negative).
example(e927,f13,negative).
example(e927,f14,positive).
example(e927,f15,positive).
example(e927,f16,negative).
example(e927,f17,negative).
example(e927,f18,positive).
example(e928,f1,negative).
example(e928,f2,negative).
example(e928,f3,positive).
example(e928,f4,negative).
example(e928,f5,negative).
example(e928,f6,negative).
example(e928,f7,negative).
example(e928,f8,negative).
example(e928,f9,positive).
example(e928,f10,negative).
example(e928,f11,negative).
example(e928,f12,positive).
example(e928,f13,negative).
example(e928,f14,positive).
example(e928,f15,positive).
example(e928,f16,negative).
example(e928,f17,negative).
example(e928,f18,positive).
example(e929,f1,negative).
example(e929,f2,negative).
example(e929,f3,negative).
example(e929,f4,negative).
example(e929,f5,negative).
example(e929,f6,positive).
example(e929,f7,negative).
example(e929,f8,positive).
example(e929,f9,negative).
example(e929,f10,positive).
example(e929,f11,negative).
example(e929,f12,negative).
example(e929,f13,positive).
example(e929,f14,negative).
example(e929,f15,positive).
example(e929,f16,negative).
example(e929,f17,positive).
example(e929,f18,negative).
example(e930,f1,negative).
example(e930,f2,negative).
example(e930,f3,negative).
example(e930,f4,negative).
example(e930,f5,negative).
example(e930,f6,positive).
example(e930,f7,negative).
example(e930,f8,positive).
example(e930,f9,negative).
example(e930,f10,negative).
example(e930,f11,negative).
example(e930,f12,positive).
example(e930,f13,positive).
example(e930,f14,negative).
example(e930,f15,positive).
example(e930,f16,negative).
example(e930,f17,positive).
example(e930,f18,negative).
example(e931,f1,negative).
example(e931,f2,negative).
example(e931,f3,negative).
example(e931,f4,negative).
example(e931,f5,negative).
example(e931,f6,positive).
example(e931,f7,positive).
example(e931,f8,negative).
example(e931,f9,positive).
example(e931,f10,negative).
example(e931,f11,positive).
example(e931,f12,negative).
example(e931,f13,negative).
example(e931,f14,positive).
example(e931,f15,negative).
example(e931,f16,positive).
example(e931,f17,negative).
example(e931,f18,negative).
example(e932,f1,negative).
example(e932,f2,negative).
example(e932,f3,negative).
example(e932,f4,negative).
example(e932,f5,negative).
example(e932,f6,positive).
example(e932,f7,positive).
example(e932,f8,negative).
example(e932,f9,positive).
example(e932,f10,negative).
example(e932,f11,positive).
example(e932,f12,negative).
example(e932,f13,negative).
example(e932,f14,positive).
example(e932,f15,negative).
example(e932,f16,negative).
example(e932,f17,negative).
example(e932,f18,positive).
example(e933,f1,negative).
example(e933,f2,negative).
example(e933,f3,negative).
example(e933,f4,negative).
example(e933,f5,negative).
example(e933,f6,positive).
example(e933,f7,positive).
example(e933,f8,negative).
example(e933,f9,positive).
example(e933,f10,negative).
example(e933,f11,positive).
example(e933,f12,negative).
example(e933,f13,negative).
example(e933,f14,negative).
example(e933,f15,negative).
example(e933,f16,positive).
example(e933,f17,negative).
example(e933,f18,positive).
example(e934,f1,negative).
example(e934,f2,negative).
example(e934,f3,negative).
example(e934,f4,negative).
example(e934,f5,negative).
example(e934,f6,positive).
example(e934,f7,negative).
example(e934,f8,negative).
example(e934,f9,negative).
example(e934,f10,positive).
example(e934,f11,negative).
example(e934,f12,positive).
example(e934,f13,positive).
example(e934,f14,negative).
example(e934,f15,positive).
example(e934,f16,negative).
example(e934,f17,positive).
example(e934,f18,negative).
example(e935,f1,negative).
example(e935,f2,negative).
example(e935,f3,negative).
example(e935,f4,negative).
example(e935,f5,positive).
example(e935,f6,negative).
example(e935,f7,negative).
example(e935,f8,positive).
example(e935,f9,negative).
example(e935,f10,positive).
example(e935,f11,positive).
example(e935,f12,negative).
example(e935,f13,negative).
example(e935,f14,positive).
example(e935,f15,negative).
example(e935,f16,negative).
example(e935,f17,positive).
example(e935,f18,negative).
example(e936,f1,negative).
example(e936,f2,negative).
example(e936,f3,negative).
example(e936,f4,negative).
example(e936,f5,positive).
example(e936,f6,negative).
example(e936,f7,negative).
example(e936,f8,positive).
example(e936,f9,negative).
example(e936,f10,positive).
example(e936,f11,positive).
example(e936,f12,negative).
example(e936,f13,negative).
example(e936,f14,negative).
example(e936,f15,negative).
example(e936,f16,positive).
example(e936,f17,positive).
example(e936,f18,negative).
example(e937,f1,negative).
example(e937,f2,negative).
example(e937,f3,negative).
example(e937,f4,negative).
example(e937,f5,positive).
example(e937,f6,negative).
example(e937,f7,negative).
example(e937,f8,positive).
example(e937,f9,positive).
example(e937,f10,negative).
example(e937,f11,negative).
example(e937,f12,positive).
example(e937,f13,positive).
example(e937,f14,negative).
example(e937,f15,negative).
example(e937,f16,positive).
example(e937,f17,negative).
example(e937,f18,negative).
example(e938,f1,negative).
example(e938,f2,negative).
example(e938,f3,negative).
example(e938,f4,negative).
example(e938,f5,positive).
example(e938,f6,negative).
example(e938,f7,negative).
example(e938,f8,positive).
example(e938,f9,positive).
example(e938,f10,negative).
example(e938,f11,negative).
example(e938,f12,positive).
example(e938,f13,positive).
example(e938,f14,negative).
example(e938,f15,negative).
example(e938,f16,negative).
example(e938,f17,negative).
example(e938,f18,positive).
example(e939,f1,negative).
example(e939,f2,negative).
example(e939,f3,negative).
example(e939,f4,negative).
example(e939,f5,positive).
example(e939,f6,negative).
example(e939,f7,negative).
example(e939,f8,positive).
example(e939,f9,positive).
example(e939,f10,negative).
example(e939,f11,negative).
example(e939,f12,negative).
example(e939,f13,positive).
example(e939,f14,negative).
example(e939,f15,negative).
example(e939,f16,positive).
example(e939,f17,negative).
example(e939,f18,positive).
example(e940,f1,negative).
example(e940,f2,negative).
example(e940,f3,negative).
example(e940,f4,negative).
example(e940,f5,positive).
example(e940,f6,negative).
example(e940,f7,negative).
example(e940,f8,positive).
example(e940,f9,negative).
example(e940,f10,negative).
example(e940,f11,positive).
example(e940,f12,negative).
example(e940,f13,negative).
example(e940,f14,positive).
example(e940,f15,negative).
example(e940,f16,positive).
example(e940,f17,positive).
example(e940,f18,negative).
example(e941,f1,negative).
example(e941,f2,negative).
example(e941,f3,negative).
example(e941,f4,negative).
example(e941,f5,positive).
example(e941,f6,negative).
example(e941,f7,negative).
example(e941,f8,negative).
example(e941,f9,negative).
example(e941,f10,positive).
example(e941,f11,positive).
example(e941,f12,negative).
example(e941,f13,negative).
example(e941,f14,positive).
example(e941,f15,negative).
example(e941,f16,positive).
example(e941,f17,positive).
example(e941,f18,negative).
example(e942,f1,negative).
example(e942,f2,negative).
example(e942,f3,negative).
example(e942,f4,negative).
example(e942,f5,positive).
example(e942,f6,negative).
example(e942,f7,negative).
example(e942,f8,negative).
example(e942,f9,positive).
example(e942,f10,negative).
example(e942,f11,negative).
example(e942,f12,positive).
example(e942,f13,positive).
example(e942,f14,negative).
example(e942,f15,negative).
example(e942,f16,positive).
example(e942,f17,negative).
example(e942,f18,positive).
example(e943,f1,negative).
example(e943,f2,positive).
example(e943,f3,negative).
example(e943,f4,positive).
example(e943,f5,positive).
example(e943,f6,negative).
example(e943,f7,positive).
example(e943,f8,negative).
example(e943,f9,negative).
example(e943,f10,positive).
example(e943,f11,negative).
example(e943,f12,positive).
example(e943,f13,negative).
example(e943,f14,positive).
example(e943,f15,positive).
example(e943,f16,negative).
example(e943,f17,positive).
example(e943,f18,negative).
example(e944,f1,negative).
example(e944,f2,positive).
example(e944,f3,negative).
example(e944,f4,positive).
example(e944,f5,positive).
example(e944,f6,negative).
example(e944,f7,positive).
example(e944,f8,negative).
example(e944,f9,positive).
example(e944,f10,negative).
example(e944,f11,negative).
example(e944,f12,positive).
example(e944,f13,negative).
example(e944,f14,positive).
example(e944,f15,negative).
example(e944,f16,positive).
example(e944,f17,positive).
example(e944,f18,negative).
example(e945,f1,negative).
example(e945,f2,positive).
example(e945,f3,negative).
example(e945,f4,positive).
example(e945,f5,positive).
example(e945,f6,negative).
example(e945,f7,positive).
example(e945,f8,negative).
example(e945,f9,positive).
example(e945,f10,negative).
example(e945,f11,negative).
example(e945,f12,positive).
example(e945,f13,negative).
example(e945,f14,positive).
example(e945,f15,positive).
example(e945,f16,negative).
example(e945,f17,negative).
example(e945,f18,positive).
example(e946,f1,negative).
example(e946,f2,positive).
example(e946,f3,positive).
example(e946,f4,negative).
example(e946,f5,negative).
example(e946,f6,positive).
example(e946,f7,negative).
example(e946,f8,positive).
example(e946,f9,negative).
example(e946,f10,positive).
example(e946,f11,positive).
example(e946,f12,negative).
example(e946,f13,positive).
example(e946,f14,negative).
example(e946,f15,negative).
example(e946,f16,positive).
example(e946,f17,positive).
example(e946,f18,negative).
example(e947,f1,negative).
example(e947,f2,positive).
example(e947,f3,positive).
example(e947,f4,negative).
example(e947,f5,negative).
example(e947,f6,positive).
example(e947,f7,negative).
example(e947,f8,positive).
example(e947,f9,positive).
example(e947,f10,negative).
example(e947,f11,negative).
example(e947,f12,positive).
example(e947,f13,positive).
example(e947,f14,negative).
example(e947,f15,negative).
example(e947,f16,positive).
example(e947,f17,positive).
example(e947,f18,negative).
example(e948,f1,negative).
example(e948,f2,positive).
example(e948,f3,positive).
example(e948,f4,negative).
example(e948,f5,negative).
example(e948,f6,positive).
example(e948,f7,negative).
example(e948,f8,positive).
example(e948,f9,positive).
example(e948,f10,negative).
example(e948,f11,positive).
example(e948,f12,negative).
example(e948,f13,positive).
example(e948,f14,negative).
example(e948,f15,negative).
example(e948,f16,positive).
example(e948,f17,negative).
example(e948,f18,positive).
example(e949,f1,negative).
example(e949,f2,positive).
example(e949,f3,positive).
example(e949,f4,negative).
example(e949,f5,negative).
example(e949,f6,positive).
example(e949,f7,positive).
example(e949,f8,negative).
example(e949,f9,negative).
example(e949,f10,positive).
example(e949,f11,negative).
example(e949,f12,positive).
example(e949,f13,positive).
example(e949,f14,negative).
example(e949,f15,negative).
example(e949,f16,positive).
example(e949,f17,positive).
example(e949,f18,negative).
example(e950,f1,negative).
example(e950,f2,positive).
example(e950,f3,positive).
example(e950,f4,negative).
example(e950,f5,negative).
example(e950,f6,positive).
example(e950,f7,positive).
example(e950,f8,negative).
example(e950,f9,positive).
example(e950,f10,negative).
example(e950,f11,negative).
example(e950,f12,positive).
example(e950,f13,negative).
example(e950,f14,positive).
example(e950,f15,negative).
example(e950,f16,positive).
example(e950,f17,positive).
example(e950,f18,negative).
example(e951,f1,negative).
example(e951,f2,positive).
example(e951,f3,positive).
example(e951,f4,negative).
example(e951,f5,positive).
example(e951,f6,negative).
example(e951,f7,positive).
example(e951,f8,negative).
example(e951,f9,negative).
example(e951,f10,positive).
example(e951,f11,negative).
example(e951,f12,positive).
example(e951,f13,negative).
example(e951,f14,positive).
example(e951,f15,negative).
example(e951,f16,positive).
example(e951,f17,positive).
example(e951,f18,negative).
example(e952,f1,positive).
example(e952,f2,negative).
example(e952,f3,negative).
example(e952,f4,positive).
example(e952,f5,negative).
example(e952,f6,positive).
example(e952,f7,negative).
example(e952,f8,positive).
example(e952,f9,negative).
example(e952,f10,positive).
example(e952,f11,positive).
example(e952,f12,negative).
example(e952,f13,positive).
example(e952,f14,negative).
example(e952,f15,positive).
example(e952,f16,negative).
example(e952,f17,negative).
example(e952,f18,positive).
example(e953,f1,positive).
example(e953,f2,negative).
example(e953,f3,negative).
example(e953,f4,positive).
example(e953,f5,negative).
example(e953,f6,positive).
example(e953,f7,negative).
example(e953,f8,positive).
example(e953,f9,positive).
example(e953,f10,negative).
example(e953,f11,positive).
example(e953,f12,negative).
example(e953,f13,negative).
example(e953,f14,positive).
example(e953,f15,positive).
example(e953,f16,negative).
example(e953,f17,negative).
example(e953,f18,positive).
example(e954,f1,positive).
example(e954,f2,negative).
example(e954,f3,negative).
example(e954,f4,positive).
example(e954,f5,negative).
example(e954,f6,positive).
example(e954,f7,negative).
example(e954,f8,positive).
example(e954,f9,positive).
example(e954,f10,negative).
example(e954,f11,positive).
example(e954,f12,negative).
example(e954,f13,positive).
example(e954,f14,negative).
example(e954,f15,negative).
example(e954,f16,positive).
example(e954,f17,negative).
example(e954,f18,positive).
example(e955,f1,positive).
example(e955,f2,negative).
example(e955,f3,negative).
example(e955,f4,positive).
example(e955,f5,positive).
example(e955,f6,negative).
example(e955,f7,negative).
example(e955,f8,positive).
example(e955,f9,negative).
example(e955,f10,positive).
example(e955,f11,positive).
example(e955,f12,negative).
example(e955,f13,negative).
example(e955,f14,positive).
example(e955,f15,positive).
example(e955,f16,negative).
example(e955,f17,negative).
example(e955,f18,positive).
example(e956,f1,positive).
example(e956,f2,negative).
example(e956,f3,negative).
example(e956,f4,positive).
example(e956,f5,positive).
example(e956,f6,negative).
example(e956,f7,negative).
example(e956,f8,positive).
example(e956,f9,positive).
example(e956,f10,negative).
example(e956,f11,negative).
example(e956,f12,positive).
example(e956,f13,negative).
example(e956,f14,positive).
example(e956,f15,positive).
example(e956,f16,negative).
example(e956,f17,negative).
example(e956,f18,positive).
example(e957,f1,positive).
example(e957,f2,negative).
example(e957,f3,negative).
example(e957,f4,positive).
example(e957,f5,positive).
example(e957,f6,negative).
example(e957,f7,positive).
example(e957,f8,negative).
example(e957,f9,negative).
example(e957,f10,positive).
example(e957,f11,negative).
example(e957,f12,positive).
example(e957,f13,negative).
example(e957,f14,positive).
example(e957,f15,positive).
example(e957,f16,negative).
example(e957,f17,negative).
example(e957,f18,positive).
example(e958,f1,positive).
example(e958,f2,negative).
example(e958,f3,positive).
example(e958,f4,negative).
example(e958,f5,negative).
example(e958,f6,positive).
example(e958,f7,negative).
example(e958,f8,positive).
example(e958,f9,negative).
example(e958,f10,positive).
example(e958,f11,positive).
example(e958,f12,negative).
example(e958,f13,positive).
example(e958,f14,negative).
example(e958,f15,negative).
example(e958,f16,positive).
example(e958,f17,negative).
example(e958,f18,positive).
target(e1,positive).
target(e2,positive).
target(e3,positive).
target(e4,positive).
target(e5,positive).
target(e6,positive).
target(e7,positive).
target(e8,positive).
target(e9,positive).
target(e10,positive).
target(e11,positive).
target(e12,positive).
target(e13,positive).
target(e14,positive).
target(e15,positive).
target(e16,positive).
target(e17,positive).
target(e18,positive).
target(e19,positive).
target(e20,positive).
target(e21,positive).
target(e22,positive).
target(e23,positive).
target(e24,positive).
target(e25,positive).
target(e26,positive).
target(e27,positive).
target(e28,positive).
target(e29,positive).
target(e30,positive).
target(e31,positive).
target(e32,positive).
target(e33,positive).
target(e34,positive).
target(e35,positive).
target(e36,positive).
target(e37,positive).
target(e38,positive).
target(e39,positive).
target(e40,positive).
target(e41,positive).
target(e42,positive).
target(e43,positive).
target(e44,positive).
target(e45,positive).
target(e46,positive).
target(e47,positive).
target(e48,positive).
target(e49,positive).
target(e50,positive).
target(e51,positive).
target(e52,positive).
target(e53,positive).
target(e54,positive).
target(e55,positive).
target(e56,positive).
target(e57,positive).
target(e58,positive).
target(e59,positive).
target(e60,positive).
target(e61,positive).
target(e62,positive).
target(e63,positive).
target(e64,positive).
target(e65,positive).
target(e66,positive).
target(e67,positive).
target(e68,positive).
target(e69,positive).
target(e70,positive).
target(e71,positive).
target(e72,positive).
target(e73,positive).
target(e74,positive).
target(e75,positive).
target(e76,positive).
target(e77,positive).
target(e78,positive).
target(e79,positive).
target(e80,positive).
target(e81,positive).
target(e82,positive).
target(e83,positive).
target(e84,positive).
target(e85,positive).
target(e86,positive).
target(e87,positive).
target(e88,positive).
target(e89,positive).
target(e90,positive).
target(e91,positive).
target(e92,positive).
target(e93,positive).
target(e94,positive).
target(e95,positive).
target(e96,positive).
target(e97,positive).
target(e98,positive).
target(e99,positive).
target(e100,positive).
target(e101,positive).
target(e102,positive).
target(e103,positive).
target(e104,positive).
target(e105,positive).
target(e106,positive).
target(e107,positive).
target(e108,positive).
target(e109,positive).
target(e110,positive).
target(e111,positive).
target(e112,positive).
target(e113,positive).
target(e114,positive).
target(e115,positive).
target(e116,positive).
target(e117,positive).
target(e118,positive).
target(e119,positive).
target(e120,positive).
target(e121,positive).
target(e122,positive).
target(e123,positive).
target(e124,positive).
target(e125,positive).
target(e126,positive).
target(e127,positive).
target(e128,positive).
target(e129,positive).
target(e130,positive).
target(e131,positive).
target(e132,positive).
target(e133,positive).
target(e134,positive).
target(e135,positive).
target(e136,positive).
target(e137,positive).
target(e138,positive).
target(e139,positive).
target(e140,positive).
target(e141,positive).
target(e142,positive).
target(e143,positive).
target(e144,positive).
target(e145,positive).
target(e146,positive).
target(e147,positive).
target(e148,positive).
target(e149,positive).
target(e150,positive).
target(e151,positive).
target(e152,positive).
target(e153,positive).
target(e154,positive).
target(e155,positive).
target(e156,positive).
target(e157,positive).
target(e158,positive).
target(e159,positive).
target(e160,positive).
target(e161,positive).
target(e162,positive).
target(e163,positive).
target(e164,positive).
target(e165,positive).
target(e166,positive).
target(e167,positive).
target(e168,positive).
target(e169,positive).
target(e170,positive).
target(e171,positive).
target(e172,positive).
target(e173,positive).
target(e174,positive).
target(e175,positive).
target(e176,positive).
target(e177,positive).
target(e178,positive).
target(e179,positive).
target(e180,positive).
target(e181,positive).
target(e182,positive).
target(e183,positive).
target(e184,positive).
target(e185,positive).
target(e186,positive).
target(e187,positive).
target(e188,positive).
target(e189,positive).
target(e190,positive).
target(e191,positive).
target(e192,positive).
target(e193,positive).
target(e194,positive).
target(e195,positive).
target(e196,positive).
target(e197,positive).
target(e198,positive).
target(e199,positive).
target(e200,positive).
target(e201,positive).
target(e202,positive).
target(e203,positive).
target(e204,positive).
target(e205,positive).
target(e206,positive).
target(e207,positive).
target(e208,positive).
target(e209,positive).
target(e210,positive).
target(e211,positive).
target(e212,positive).
target(e213,positive).
target(e214,positive).
target(e215,positive).
target(e216,positive).
target(e217,positive).
target(e218,positive).
target(e219,positive).
target(e220,positive).
target(e221,positive).
target(e222,positive).
target(e223,positive).
target(e224,positive).
target(e225,positive).
target(e226,positive).
target(e227,positive).
target(e228,positive).
target(e229,positive).
target(e230,positive).
target(e231,positive).
target(e232,positive).
target(e233,positive).
target(e234,positive).
target(e235,positive).
target(e236,positive).
target(e237,positive).
target(e238,positive).
target(e239,positive).
target(e240,positive).
target(e241,positive).
target(e242,positive).
target(e243,positive).
target(e244,positive).
target(e245,positive).
target(e246,positive).
target(e247,positive).
target(e248,positive).
target(e249,positive).
target(e250,positive).
target(e251,positive).
target(e252,positive).
target(e253,positive).
target(e254,positive).
target(e255,positive).
target(e256,positive).
target(e257,positive).
target(e258,positive).
target(e259,positive).
target(e260,positive).
target(e261,positive).
target(e262,positive).
target(e263,positive).
target(e264,positive).
target(e265,positive).
target(e266,positive).
target(e267,positive).
target(e268,positive).
target(e269,positive).
target(e270,positive).
target(e271,positive).
target(e272,positive).
target(e273,positive).
target(e274,positive).
target(e275,positive).
target(e276,positive).
target(e277,positive).
target(e278,positive).
target(e279,positive).
target(e280,positive).
target(e281,positive).
target(e282,positive).
target(e283,positive).
target(e284,positive).
target(e285,positive).
target(e286,positive).
target(e287,positive).
target(e288,positive).
target(e289,positive).
target(e290,positive).
target(e291,positive).
target(e292,positive).
target(e293,positive).
target(e294,positive).
target(e295,positive).
target(e296,positive).
target(e297,positive).
target(e298,positive).
target(e299,positive).
target(e300,positive).
target(e301,positive).
target(e302,positive).
target(e303,positive).
target(e304,positive).
target(e305,positive).
target(e306,positive).
target(e307,positive).
target(e308,positive).
target(e309,positive).
target(e310,positive).
target(e311,positive).
target(e312,positive).
target(e313,positive).
target(e314,positive).
target(e315,positive).
target(e316,positive).
target(e317,positive).
target(e318,positive).
target(e319,positive).
target(e320,positive).
target(e321,positive).
target(e322,positive).
target(e323,positive).
target(e324,positive).
target(e325,positive).
target(e326,positive).
target(e327,positive).
target(e328,positive).
target(e329,positive).
target(e330,positive).
target(e331,positive).
target(e332,positive).
target(e333,positive).
target(e334,positive).
target(e335,positive).
target(e336,positive).
target(e337,positive).
target(e338,positive).
target(e339,positive).
target(e340,positive).
target(e341,positive).
target(e342,positive).
target(e343,positive).
target(e344,positive).
target(e345,positive).
target(e346,positive).
target(e347,positive).
target(e348,positive).
target(e349,positive).
target(e350,positive).
target(e351,positive).
target(e352,positive).
target(e353,positive).
target(e354,positive).
target(e355,positive).
target(e356,positive).
target(e357,positive).
target(e358,positive).
target(e359,positive).
target(e360,positive).
target(e361,positive).
target(e362,positive).
target(e363,positive).
target(e364,positive).
target(e365,positive).
target(e366,positive).
target(e367,positive).
target(e368,positive).
target(e369,positive).
target(e370,positive).
target(e371,positive).
target(e372,positive).
target(e373,positive).
target(e374,positive).
target(e375,positive).
target(e376,positive).
target(e377,positive).
target(e378,positive).
target(e379,positive).
target(e380,positive).
target(e381,positive).
target(e382,positive).
target(e383,positive).
target(e384,positive).
target(e385,positive).
target(e386,positive).
target(e387,positive).
target(e388,positive).
target(e389,positive).
target(e390,positive).
target(e391,positive).
target(e392,positive).
target(e393,positive).
target(e394,positive).
target(e395,positive).
target(e396,positive).
target(e397,positive).
target(e398,positive).
target(e399,positive).
target(e400,positive).
target(e401,positive).
target(e402,positive).
target(e403,positive).
target(e404,positive).
target(e405,positive).
target(e406,positive).
target(e407,positive).
target(e408,positive).
target(e409,positive).
target(e410,positive).
target(e411,positive).
target(e412,positive).
target(e413,positive).
target(e414,positive).
target(e415,positive).
target(e416,positive).
target(e417,positive).
target(e418,positive).
target(e419,positive).
target(e420,positive).
target(e421,positive).
target(e422,positive).
target(e423,positive).
target(e424,positive).
target(e425,positive).
target(e426,positive).
target(e427,positive).
target(e428,positive).
target(e429,positive).
target(e430,positive).
target(e431,positive).
target(e432,positive).
target(e433,positive).
target(e434,positive).
target(e435,positive).
target(e436,positive).
target(e437,positive).
target(e438,positive).
target(e439,positive).
target(e440,positive).
target(e441,positive).
target(e442,positive).
target(e443,positive).
target(e444,positive).
target(e445,positive).
target(e446,positive).
target(e447,positive).
target(e448,positive).
target(e449,positive).
target(e450,positive).
target(e451,positive).
target(e452,positive).
target(e453,positive).
target(e454,positive).
target(e455,positive).
target(e456,positive).
target(e457,positive).
target(e458,positive).
target(e459,positive).
target(e460,positive).
target(e461,positive).
target(e462,positive).
target(e463,positive).
target(e464,positive).
target(e465,positive).
target(e466,positive).
target(e467,positive).
target(e468,positive).
target(e469,positive).
target(e470,positive).
target(e471,positive).
target(e472,positive).
target(e473,positive).
target(e474,positive).
target(e475,positive).
target(e476,positive).
target(e477,positive).
target(e478,positive).
target(e479,positive).
target(e480,positive).
target(e481,positive).
target(e482,positive).
target(e483,positive).
target(e484,positive).
target(e485,positive).
target(e486,positive).
target(e487,positive).
target(e488,positive).
target(e489,positive).
target(e490,positive).
target(e491,positive).
target(e492,positive).
target(e493,positive).
target(e494,positive).
target(e495,positive).
target(e496,positive).
target(e497,positive).
target(e498,positive).
target(e499,positive).
target(e500,positive).
target(e501,positive).
target(e502,positive).
target(e503,positive).
target(e504,positive).
target(e505,positive).
target(e506,positive).
target(e507,positive).
target(e508,positive).
target(e509,positive).
target(e510,positive).
target(e511,positive).
target(e512,positive).
target(e513,positive).
target(e514,positive).
target(e515,positive).
target(e516,positive).
target(e517,positive).
target(e518,positive).
target(e519,positive).
target(e520,positive).
target(e521,positive).
target(e522,positive).
target(e523,positive).
target(e524,positive).
target(e525,positive).
target(e526,positive).
target(e527,positive).
target(e528,positive).
target(e529,positive).
target(e530,positive).
target(e531,positive).
target(e532,positive).
target(e533,positive).
target(e534,positive).
target(e535,positive).
target(e536,positive).
target(e537,positive).
target(e538,positive).
target(e539,positive).
target(e540,positive).
target(e541,positive).
target(e542,positive).
target(e543,positive).
target(e544,positive).
target(e545,positive).
target(e546,positive).
target(e547,positive).
target(e548,positive).
target(e549,positive).
target(e550,positive).
target(e551,positive).
target(e552,positive).
target(e553,positive).
target(e554,positive).
target(e555,positive).
target(e556,positive).
target(e557,positive).
target(e558,positive).
target(e559,positive).
target(e560,positive).
target(e561,positive).
target(e562,positive).
target(e563,positive).
target(e564,positive).
target(e565,positive).
target(e566,positive).
target(e567,positive).
target(e568,positive).
target(e569,positive).
target(e570,positive).
target(e571,positive).
target(e572,positive).
target(e573,positive).
target(e574,positive).
target(e575,positive).
target(e576,positive).
target(e577,positive).
target(e578,positive).
target(e579,positive).
target(e580,positive).
target(e581,positive).
target(e582,positive).
target(e583,positive).
target(e584,positive).
target(e585,positive).
target(e586,positive).
target(e587,positive).
target(e588,positive).
target(e589,positive).
target(e590,positive).
target(e591,positive).
target(e592,positive).
target(e593,positive).
target(e594,positive).
target(e595,positive).
target(e596,positive).
target(e597,positive).
target(e598,positive).
target(e599,positive).
target(e600,positive).
target(e601,positive).
target(e602,positive).
target(e603,positive).
target(e604,positive).
target(e605,positive).
target(e606,positive).
target(e607,positive).
target(e608,positive).
target(e609,positive).
target(e610,positive).
target(e611,positive).
target(e612,positive).
target(e613,positive).
target(e614,positive).
target(e615,positive).
target(e616,positive).
target(e617,positive).
target(e618,positive).
target(e619,positive).
target(e620,positive).
target(e621,positive).
target(e622,positive).
target(e623,positive).
target(e624,positive).
target(e625,positive).
target(e626,positive).
target(e627,negative).
target(e628,negative).
target(e629,negative).
target(e630,negative).
target(e631,negative).
target(e632,negative).
target(e633,negative).
target(e634,negative).
target(e635,negative).
target(e636,negative).
target(e637,negative).
target(e638,negative).
target(e639,negative).
target(e640,negative).
target(e641,negative).
target(e642,negative).
target(e643,negative).
target(e644,negative).
target(e645,negative).
target(e646,negative).
target(e647,negative).
target(e648,negative).
target(e649,negative).
target(e650,negative).
target(e651,negative).
target(e652,negative).
target(e653,negative).
target(e654,negative).
target(e655,negative).
target(e656,negative).
target(e657,negative).
target(e658,negative).
target(e659,negative).
target(e660,negative).
target(e661,negative).
target(e662,negative).
target(e663,negative).
target(e664,negative).
target(e665,negative).
target(e666,negative).
target(e667,negative).
target(e668,negative).
target(e669,negative).
target(e670,negative).
target(e671,negative).
target(e672,negative).
target(e673,negative).
target(e674,negative).
target(e675,negative).
target(e676,negative).
target(e677,negative).
target(e678,negative).
target(e679,negative).
target(e680,negative).
target(e681,negative).
target(e682,negative).
target(e683,negative).
target(e684,negative).
target(e685,negative).
target(e686,negative).
target(e687,negative).
target(e688,negative).
target(e689,negative).
target(e690,negative).
target(e691,negative).
target(e692,negative).
target(e693,negative).
target(e694,negative).
target(e695,negative).
target(e696,negative).
target(e697,negative).
target(e698,negative).
target(e699,negative).
target(e700,negative).
target(e701,negative).
target(e702,negative).
target(e703,negative).
target(e704,negative).
target(e705,negative).
target(e706,negative).
target(e707,negative).
target(e708,negative).
target(e709,negative).
target(e710,negative).
target(e711,negative).
target(e712,negative).
target(e713,negative).
target(e714,negative).
target(e715,negative).
target(e716,negative).
target(e717,negative).
target(e718,negative).
target(e719,negative).
target(e720,negative).
target(e721,negative).
target(e722,negative).
target(e723,negative).
target(e724,negative).
target(e725,negative).
target(e726,negative).
target(e727,negative).
target(e728,negative).
target(e729,negative).
target(e730,negative).
target(e731,negative).
target(e732,negative).
target(e733,negative).
target(e734,negative).
target(e735,negative).
target(e736,negative).
target(e737,negative).
target(e738,negative).
target(e739,negative).
target(e740,negative).
target(e741,negative).
target(e742,negative).
target(e743,negative).
target(e744,negative).
target(e745,negative).
target(e746,negative).
target(e747,negative).
target(e748,negative).
target(e749,negative).
target(e750,negative).
target(e751,negative).
target(e752,negative).
target(e753,negative).
target(e754,negative).
target(e755,negative).
target(e756,negative).
target(e757,negative).
target(e758,negative).
target(e759,negative).
target(e760,negative).
target(e761,negative).
target(e762,negative).
target(e763,negative).
target(e764,negative).
target(e765,negative).
target(e766,negative).
target(e767,negative).
target(e768,negative).
target(e769,negative).
target(e770,negative).
target(e771,negative).
target(e772,negative).
target(e773,negative).
target(e774,negative).
target(e775,negative).
target(e776,negative).
target(e777,negative).
target(e778,negative).
target(e779,negative).
target(e780,negative).
target(e781,negative).
target(e782,negative).
target(e783,negative).
target(e784,negative).
target(e785,negative).
target(e786,negative).
target(e787,negative).
target(e788,negative).
target(e789,negative).
target(e790,negative).
target(e791,negative).
target(e792,negative).
target(e793,negative).
target(e794,negative).
target(e795,negative).
target(e796,negative).
target(e797,negative).
target(e798,negative).
target(e799,negative).
target(e800,negative).
target(e801,negative).
target(e802,negative).
target(e803,negative).
target(e804,negative).
target(e805,negative).
target(e806,negative).
target(e807,negative).
target(e808,negative).
target(e809,negative).
target(e810,negative).
target(e811,negative).
target(e812,negative).
target(e813,negative).
target(e814,negative).
target(e815,negative).
target(e816,negative).
target(e817,negative).
target(e818,negative).
target(e819,negative).
target(e820,negative).
target(e821,negative).
target(e822,negative).
target(e823,negative).
target(e824,negative).
target(e825,negative).
target(e826,negative).
target(e827,negative).
target(e828,negative).
target(e829,negative).
target(e830,negative).
target(e831,negative).
target(e832,negative).
target(e833,negative).
target(e834,negative).
target(e835,negative).
target(e836,negative).
target(e837,negative).
target(e838,negative).
target(e839,negative).
target(e840,negative).
target(e841,negative).
target(e842,negative).
target(e843,negative).
target(e844,negative).
target(e845,negative).
target(e846,negative).
target(e847,negative).
target(e848,negative).
target(e849,negative).
target(e850,negative).
target(e851,negative).
target(e852,negative).
target(e853,negative).
target(e854,negative).
target(e855,negative).
target(e856,negative).
target(e857,negative).
target(e858,negative).
target(e859,negative).
target(e860,negative).
target(e861,negative).
target(e862,negative).
target(e863,negative).
target(e864,negative).
target(e865,negative).
target(e866,negative).
target(e867,negative).
target(e868,negative).
target(e869,negative).
target(e870,negative).
target(e871,negative).
target(e872,negative).
target(e873,negative).
target(e874,negative).
target(e875,negative).
target(e876,negative).
target(e877,negative).
target(e878,negative).
target(e879,negative).
target(e880,negative).
target(e881,negative).
target(e882,negative).
target(e883,negative).
target(e884,negative).
target(e885,negative).
target(e886,negative).
target(e887,negative).
target(e888,negative).
target(e889,negative).
target(e890,negative).
target(e891,negative).
target(e892,negative).
target(e893,negative).
target(e894,negative).
target(e895,negative).
target(e896,negative).
target(e897,negative).
target(e898,negative).
target(e899,negative).
target(e900,negative).
target(e901,negative).
target(e902,negative).
target(e903,negative).
target(e904,negative).
target(e905,negative).
target(e906,negative).
target(e907,negative).
target(e908,negative).
target(e909,negative).
target(e910,negative).
target(e911,negative).
target(e912,negative).
target(e913,negative).
target(e914,negative).
target(e915,negative).
target(e916,negative).
target(e917,negative).
target(e918,negative).
target(e919,negative).
target(e920,negative).
target(e921,negative).
target(e922,negative).
target(e923,negative).
target(e924,negative).
target(e925,negative).
target(e926,negative).
target(e927,negative).
target(e928,negative).
target(e929,negative).
target(e930,negative).
target(e931,negative).
target(e932,negative).
target(e933,negative).
target(e934,negative).
target(e935,negative).
target(e936,negative).
target(e937,negative).
target(e938,negative).
target(e939,negative).
target(e940,negative).
target(e941,negative).
target(e942,negative).
target(e943,negative).
target(e944,negative).
target(e945,negative).
target(e946,negative).
target(e947,negative).
target(e948,negative).
target(e949,negative).
target(e950,negative).
target(e951,negative).
target(e952,negative).
target(e953,negative).
target(e954,negative).
target(e955,negative).
target(e956,negative).
target(e957,negative).
target(e958,negative).
feature(f1; f2; f3; f4; f5; f6; f7; f8; f9; f10; f11; f12; f13; f14; f15; f16; f17; f18).
% |--- f9 <= 0.50
% |   |--- f1 <= 0.50
% |   |   |--- f17 <= 0.50
% |   |   |   |--- class: 1
% |   |   |--- f17 >  0.50
% |   |   |   |--- f5 <= 0.50
% |   |   |   |   |--- f13 <= 0.50
% |   |   |   |   |   |--- class: 1
% |   |   |   |   |--- f13 >  0.50
% |   |   |   |   |   |--- f15 <= 0.50
% |   |   |   |   |   |   |--- f3 <= 0.50
% |   |   |   |   |   |   |   |--- class: 1
% |   |   |   |   |   |   |--- f3 >  0.50
% |   |   |   |   |   |   |   |--- f2 <= 0.50
% |   |   |   |   |   |   |   |   |--- class: 1
% |   |   |   |   |   |   |   |--- f2 >  0.50
% |   |   |   |   |   |   |   |   |--- f16 <= 0.50
% |   |   |   |   |   |   |   |   |   |--- class: 1
% |   |   |   |   |   |   |   |   |--- f16 >  0.50
% |   |   |   |   |   |   |   |   |   |--- class: 0
% |   |   |   |   |   |--- f15 >  0.50
% |   |   |   |   |   |   |--- class: 0
% |   |   |   |--- f5 >  0.50
% |   |   |   |   |--- f11 <= 0.50
% |   |   |   |   |   |--- f15 <= 0.50
% |   |   |   |   |   |   |--- f7 <= 0.50
% |   |   |   |   |   |   |   |--- class: 1
% |   |   |   |   |   |   |--- f7 >  0.50
% |   |   |   |   |   |   |   |--- f3 <= 0.50
% |   |   |   |   |   |   |   |   |--- class: 1
% |   |   |   |   |   |   |   |--- f3 >  0.50
% |   |   |   |   |   |   |   |   |--- class: 0
% |   |   |   |   |   |--- f15 >  0.50
% |   |   |   |   |   |   |--- f13 <= 0.50
% |   |   |   |   |   |   |   |--- f7 <= 0.50
% |   |   |   |   |   |   |   |   |--- class: 1
% |   |   |   |   |   |   |   |--- f7 >  0.50
% |   |   |   |   |   |   |   |   |--- class: 0
% |   |   |   |   |   |   |--- f13 >  0.50
% |   |   |   |   |   |   |   |--- class: 0
% |   |   |   |   |--- f11 >  0.50
% |   |   |   |   |   |--- class: 0
% |   |--- f1 >  0.50
% |   |   |--- f13 <= 0.50
% |   |   |   |--- f5 <= 0.50
% |   |   |   |   |--- class: 1
% |   |   |   |--- f5 >  0.50
% |   |   |   |   |--- f3 <= 0.50
% |   |   |   |   |   |--- f11 <= 0.50
% |   |   |   |   |   |   |--- f15 <= 0.50
% |   |   |   |   |   |   |   |--- class: 1
% |   |   |   |   |   |   |--- f15 >  0.50
% |   |   |   |   |   |   |   |--- f8 <= 0.50
% |   |   |   |   |   |   |   |   |--- class: 0
% |   |   |   |   |   |   |   |--- f8 >  0.50
% |   |   |   |   |   |   |   |   |--- class: 1
% |   |   |   |   |   |--- f11 >  0.50
% |   |   |   |   |   |   |--- f17 <= 0.50
% |   |   |   |   |   |   |   |--- f15 <= 0.50
% |   |   |   |   |   |   |   |   |--- class: 1
% |   |   |   |   |   |   |   |--- f15 >  0.50
% |   |   |   |   |   |   |   |   |--- class: 0
% |   |   |   |   |   |   |--- f17 >  0.50
% |   |   |   |   |   |   |   |--- class: 0
% |   |   |   |   |--- f3 >  0.50
% |   |   |   |   |   |--- class: 0
% |   |   |--- f13 >  0.50
% |   |   |   |--- f7 <= 0.50
% |   |   |   |   |--- f15 <= 0.50
% |   |   |   |   |   |--- f3 <= 0.50
% |   |   |   |   |   |   |--- class: 1
% |   |   |   |   |   |--- f3 >  0.50
% |   |   |   |   |   |   |--- f5 <= 0.50
% |   |   |   |   |   |   |   |--- f11 <= 0.50
% |   |   |   |   |   |   |   |   |--- class: 1
% |   |   |   |   |   |   |   |--- f11 >  0.50
% |   |   |   |   |   |   |   |   |--- class: 0
% |   |   |   |   |   |   |--- f5 >  0.50
% |   |   |   |   |   |   |   |--- class: 0
% |   |   |   |   |--- f15 >  0.50
% |   |   |   |   |   |--- f17 <= 0.50
% |   |   |   |   |   |   |--- f11 <= 0.50
% |   |   |   |   |   |   |   |--- class: 1
% |   |   |   |   |   |   |--- f11 >  0.50
% |   |   |   |   |   |   |   |--- class: 0
% |   |   |   |   |   |--- f17 >  0.50
% |   |   |   |   |   |   |--- class: 0
% |   |   |   |--- f7 >  0.50
% |   |   |   |   |--- class: 0
% |--- f9 >  0.50
% |   |--- f14 <= 0.50
% |   |   |--- f6 <= 0.50
% |   |   |   |--- class: 0
% |   |   |--- f6 >  0.50
% |   |   |   |--- f8 <= 0.50
% |   |   |   |   |--- f11 <= 0.50
% |   |   |   |   |   |--- f1 <= 0.50
% |   |   |   |   |   |   |--- f3 <= 0.50
% |   |   |   |   |   |   |   |--- class: 1
% |   |   |   |   |   |   |--- f3 >  0.50
% |   |   |   |   |   |   |   |--- f15 <= 0.50
% |   |   |   |   |   |   |   |   |--- class: 1
% |   |   |   |   |   |   |   |--- f15 >  0.50
% |   |   |   |   |   |   |   |   |--- class: 0
% |   |   |   |   |   |--- f1 >  0.50
% |   |   |   |   |   |   |--- f18 <= 0.50
% |   |   |   |   |   |   |   |--- class: 0
% |   |   |   |   |   |   |--- f18 >  0.50
% |   |   |   |   |   |   |   |--- f12 <= 0.50
% |   |   |   |   |   |   |   |   |--- class: 0
% |   |   |   |   |   |   |   |--- f12 >  0.50
% |   |   |   |   |   |   |   |   |--- class: 1
% |   |   |   |   |--- f11 >  0.50
% |   |   |   |   |   |--- f7 <= 0.50
% |   |   |   |   |   |   |--- class: 1
% |   |   |   |   |   |--- f7 >  0.50
% |   |   |   |   |   |   |--- class: 0
% |   |   |   |--- f8 >  0.50
% |   |   |   |   |--- f17 <= 0.50
% |   |   |   |   |   |--- f3 <= 0.50
% |   |   |   |   |   |   |--- f16 <= 0.50
% |   |   |   |   |   |   |   |--- class: 1
% |   |   |   |   |   |   |--- f16 >  0.50
% |   |   |   |   |   |   |   |--- class: 0
% |   |   |   |   |   |--- f3 >  0.50
% |   |   |   |   |   |   |--- f15 <= 0.50
% |   |   |   |   |   |   |   |--- f12 <= 0.50
% |   |   |   |   |   |   |   |   |--- class: 0
% |   |   |   |   |   |   |   |--- f12 >  0.50
% |   |   |   |   |   |   |   |   |--- class: 1
% |   |   |   |   |   |   |--- f15 >  0.50
% |   |   |   |   |   |   |   |--- class: 0
% |   |   |   |   |--- f17 >  0.50
% |   |   |   |   |   |--- f2 <= 0.50
% |   |   |   |   |   |   |--- class: 0
% |   |   |   |   |   |--- f2 >  0.50
% |   |   |   |   |   |   |--- f12 <= 0.50
% |   |   |   |   |   |   |   |--- class: 1
% |   |   |   |   |   |   |--- f12 >  0.50
% |   |   |   |   |   |   |   |--- class: 0
% |   |--- f14 >  0.50
% |   |   |--- f2 <= 0.50
% |   |   |   |--- f18 <= 0.50
% |   |   |   |   |--- class: 0
% |   |   |   |--- f18 >  0.50
% |   |   |   |   |--- f16 <= 0.50
% |   |   |   |   |   |--- f12 <= 0.50
% |   |   |   |   |   |   |--- class: 0
% |   |   |   |   |   |--- f12 >  0.50
% |   |   |   |   |   |   |--- f6 <= 0.50
% |   |   |   |   |   |   |   |--- class: 0
% |   |   |   |   |   |   |--- f6 >  0.50
% |   |   |   |   |   |   |   |--- class: 1
% |   |   |   |   |--- f16 >  0.50
% |   |   |   |   |   |--- class: 1
% |   |   |--- f2 >  0.50
% |   |   |   |--- f8 <= 0.50
% |   |   |   |   |--- f7 <= 0.50
% |   |   |   |   |   |--- f15 <= 0.50
% |   |   |   |   |   |   |--- f17 <= 0.50
% |   |   |   |   |   |   |   |--- class: 1
% |   |   |   |   |   |   |--- f17 >  0.50
% |   |   |   |   |   |   |   |--- f16 <= 0.50
% |   |   |   |   |   |   |   |   |--- class: 1
% |   |   |   |   |   |   |   |--- f16 >  0.50
% |   |   |   |   |   |   |   |   |--- class: 0
% |   |   |   |   |   |--- f15 >  0.50
% |   |   |   |   |   |   |--- f4 <= 0.50
% |   |   |   |   |   |   |   |--- class: 0
% |   |   |   |   |   |   |--- f4 >  0.50
% |   |   |   |   |   |   |   |--- class: 1
% |   |   |   |   |--- f7 >  0.50
% |   |   |   |   |   |--- f11 <= 0.50
% |   |   |   |   |   |   |--- f12 <= 0.50
% |   |   |   |   |   |   |   |--- f3 <= 0.50
% |   |   |   |   |   |   |   |   |--- class: 1
% |   |   |   |   |   |   |   |--- f3 >  0.50
% |   |   |   |   |   |   |   |   |--- f6 <= 0.50
% |   |   |   |   |   |   |   |   |   |--- class: 1
% |   |   |   |   |   |   |   |   |--- f6 >  0.50
% |   |   |   |   |   |   |   |   |   |--- class: 0
% |   |   |   |   |   |   |--- f12 >  0.50
% |   |   |   |   |   |   |   |--- f5 <= 0.50
% |   |   |   |   |   |   |   |   |--- f4 <= 0.50
% |   |   |   |   |   |   |   |   |   |--- class: 0
% |   |   |   |   |   |   |   |   |--- f4 >  0.50
% |   |   |   |   |   |   |   |   |   |--- class: 1
% |   |   |   |   |   |   |   |--- f5 >  0.50
% |   |   |   |   |   |   |   |   |--- f4 <= 0.50
% |   |   |   |   |   |   |   |   |   |--- class: 1
% |   |   |   |   |   |   |   |   |--- f4 >  0.50
% |   |   |   |   |   |   |   |   |   |--- class: 0
% |   |   |   |   |   |--- f11 >  0.50
% |   |   |   |   |   |   |--- class: 0
% |   |   |   |--- f8 >  0.50
% |   |   |   |   |--- class: 1
% Accuracy of the decision tree classifier on the training data: 1.00
% Depth of the decision tree classifier: 9
% Number of nodes in the decision tree classifier: 131
% Number of leaf nodes in the decision tree classifier: 66
